     Program PWSCF v.6.1 starts on 29Feb2020 at 20:25:40

     Current dimensions of program PWSCF are:
     Max number of different atomic species (ntypx) = 10
     Max number of k-points (npk) =  40000
     Max angular momentum in pseudopotentials (lmaxx) =  3
               file B.pbe-n-kjpaw_psl.0.1.UPF: wavefunction(s)  2P renormalized
               file C.pbe-n-kjpaw_psl.1.0.0.UPF: wavefunction(s)  2S 2P renormalized

     Subspace diagonalization in iterative solution of the eigenvalue problem:
     a serial algorithm will be used

     bravais-lattice index     =            0
     lattice parameter (alat)  =      33.1932  a.u.
     unit-cell volume          =   31672.2715 (a.u.)^3
     number of atoms/cell      =           98
     number of atomic types    =            3
     number of electrons       =       392.00
     number of Kohn-Sham states=          235
     kinetic-energy cutoff     =      55.0000  Ry
     charge density cutoff     =     440.0000  Ry
     convergence threshold     =      1.0E-09
     mixing beta               =       0.3000
     number of iterations used =            8  plain     mixing
     Exchange-correlation      = PBE ( 1  4  3  4 0 0)
     nstep                     =          200

     celldm(1)=  33.193231  celldm(2)=   0.000000  celldm(3)=   0.000000
     celldm(4)=   0.000000  celldm(5)=   0.000000  celldm(6)=   0.000000

     crystal axes: (cart. coord. in units of alat)
               a(1) = (   1.000000   0.000000   0.000000 )
               a(2) = (  -0.500000   0.866025   0.000000 )
               a(3) = (   0.000000   0.000000   1.000000 )

     reciprocal axes: (cart. coord. in units 2 pi/alat)
               b(1) = (  1.000000  0.577350  0.000000 )
               b(2) = (  0.000000  1.154701  0.000000 )
               b(3) = (  0.000000  0.000000  1.000000 )

     PseudoPot. # 1 for  B read from file:
     ./pseudo/B.pbe-n-kjpaw_psl.0.1.UPF
     MD5 check sum: b4345a612e0782cca08559f453f3313f
     Pseudo is Projector augmented-wave + core cor, Zval =  3.0
     Generated using "atomic" code by A. Dal Corso  v.5.0.99 svn rev. 10869
     Shape of augmentation charge: BESSEL
     Using radial grid of 1059 points,  4 beta functions with:
                l(1) =   0
                l(2) =   0
                l(3) =   1
                l(4) =   1
     Q(r) pseudized with 0 coefficients

     PseudoPot. # 2 for  C read from file:
     ./pseudo/C.pbe-n-kjpaw_psl.1.0.0.UPF
     MD5 check sum: 5d2aebdfa2cae82b50a7e79e9516da0f
     Pseudo is Projector augmented-wave + core cor, Zval =  4.0
     Generated using "atomic" code by A. Dal Corso  v.5.1
     Shape of augmentation charge: PSQ
     Using radial grid of 1073 points,  4 beta functions with:
                l(1) =   0
                l(2) =   0
                l(3) =   1
                l(4) =   1
     Q(r) pseudized with 0 coefficients

     PseudoPot. # 3 for  N read from file:
     ./pseudo/N.pbe.theos.UPF
     MD5 check sum: 1fde47ee573fe9ed3106b9b4217eb757
     Pseudo is Ultrasoft + core correction, Zval =  5.0
     Generated using "atomic" code by A. Dal Corso  v.5.1
     Using radial grid of 1085 points,  4 beta functions with:
                l(1) =   0
                l(2) =   0
                l(3) =   1
                l(4) =   1
     Q(r) pseudized with 0 coefficients

     atomic species   valence    mass     pseudopotential
        B              3.00    10.81100      B( 1.00)
        C              4.00    12.01070      C( 1.00)
        N              5.00    14.00670      N( 1.00)

     Starting magnetic structure
     atomic species   magnetization
        B            0.400
        C            0.000
        N            0.000

      2 Sym. Ops. (no inversion) found
          (note:  4 additional sym.ops. were found but ignored
           their fractional translations are incommensurate with FFT grid)

                                    s                        frac. trans.

      isym =  1     identity

 cryst.   s( 1) = (     1          0          0      )
                  (     0          1          0      )
                  (     0          0          1      )

 cart.    s( 1) = (  1.0000000  0.0000000  0.0000000 )
                  (  0.0000000  1.0000000  0.0000000 )
                  (  0.0000000  0.0000000  1.0000000 )

      isym =  2     inv. 180 deg rotation - cart. axis [1,0,0]

 cryst.   s( 2) = (    -1          0          0      )
                  (     1          1          0      )
                  (     0          0          1      )

 cart.    s( 2) = ( -1.0000000  0.0000000  0.0000000 )
                  (  0.0000000  1.0000000  0.0000000 )
                  (  0.0000000  0.0000000  1.0000000 )

   Cartesian axes

     site n.     atom                  positions (alat units)
         1           N   tau(   1) = (   0.0714286   0.0412393   0.5693107  )
         2           B   tau(   2) = (  -0.0714286   0.2061965   0.5693107  )
         3           N   tau(   3) = (   0.0000000   0.1649572   0.5693107  )
         4           B   tau(   4) = (  -0.1428571   0.3299144   0.5693107  )
         5           N   tau(   5) = (  -0.0714286   0.2886751   0.5693107  )
         6           B   tau(   6) = (  -0.2142857   0.4536324   0.5693107  )
         7           N   tau(   7) = (  -0.1428571   0.4123930   0.5693107  )
         8           B   tau(   8) = (  -0.2857143   0.5773503   0.5693107  )
         9           N   tau(   9) = (  -0.2142857   0.5361110   0.5693107  )
        10           B   tau(  10) = (  -0.3571429   0.7010682   0.5693107  )
        11           N   tau(  11) = (  -0.2857143   0.6598289   0.5693107  )
        12           B   tau(  12) = (  -0.4285714   0.8247861   0.5693107  )
        13           N   tau(  13) = (  -0.3571429   0.7835468   0.5693107  )
        14           B   tau(  14) = (   0.1428571   0.0824786   0.5693107  )
        15           N   tau(  15) = (   0.2142857   0.0412393   0.5693107  )
        16           B   tau(  16) = (   0.0714286   0.2061965   0.5693107  )
        17           N   tau(  17) = (   0.1428571   0.1649572   0.5693107  )
        18           B   tau(  18) = (   0.0000000   0.3299144   0.5693107  )
        19           N   tau(  19) = (   0.0714286   0.2886751   0.5693107  )
        20           B   tau(  20) = (  -0.0714286   0.4536324   0.5693107  )
        21           N   tau(  21) = (   0.0000000   0.4123930   0.5693107  )
        22           B   tau(  22) = (  -0.1428571   0.5773503   0.5693107  )
        23           N   tau(  23) = (  -0.0714286   0.5361110   0.5693107  )
        24           B   tau(  24) = (  -0.2142857   0.7010682   0.5693107  )
        25           N   tau(  25) = (  -0.1428571   0.6598289   0.5693107  )
        26           B   tau(  26) = (  -0.2857143   0.8247861   0.5693107  )
        27           N   tau(  27) = (  -0.2142857   0.7835468   0.5693107  )
        28           B   tau(  28) = (   0.2857143   0.0824786   0.5693107  )
        29           N   tau(  29) = (   0.3571429   0.0412393   0.5693107  )
        30           B   tau(  30) = (   0.2142857   0.2061965   0.5693107  )
        31           N   tau(  31) = (   0.2857143   0.1649572   0.5693107  )
        32           B   tau(  32) = (   0.1428571   0.3299144   0.5693107  )
        33           N   tau(  33) = (   0.2142857   0.2886751   0.5693107  )
        34           B   tau(  34) = (   0.0714286   0.4536324   0.5693107  )
        35           N   tau(  35) = (   0.1428571   0.4123930   0.5693107  )
        36           B   tau(  36) = (   0.0000000   0.5773503   0.5693107  )
        37           N   tau(  37) = (   0.0714286   0.5361110   0.5693107  )
        38           B   tau(  38) = (  -0.0714286   0.7010682   0.5693107  )
        39           N   tau(  39) = (   0.0000000   0.6598289   0.5693107  )
        40           B   tau(  40) = (  -0.1428571   0.8247861   0.5693107  )
        41           N   tau(  41) = (  -0.0714286   0.7835468   0.5693107  )
        42           B   tau(  42) = (   0.4285714   0.0824786   0.5693107  )
        43           N   tau(  43) = (   0.5000000   0.0412393   0.5693107  )
        44           B   tau(  44) = (   0.3571429   0.2061965   0.5693107  )
        45           N   tau(  45) = (   0.4285714   0.1649572   0.5693107  )
        46           B   tau(  46) = (   0.2857143   0.3299144   0.5693107  )
        47           N   tau(  47) = (   0.3571429   0.2886751   0.5693107  )
        48           B   tau(  48) = (   0.2142857   0.4536324   0.5693107  )
        49           N   tau(  49) = (   0.2857143   0.4123930   0.5693107  )
        50           B   tau(  50) = (   0.1428571   0.5773503   0.5693107  )
        51           N   tau(  51) = (   0.2142857   0.5361110   0.5693107  )
        52           B   tau(  52) = (   0.0714286   0.7010682   0.5693107  )
        53           N   tau(  53) = (   0.1428571   0.6598289   0.5693107  )
        54           B   tau(  54) = (   0.0000000   0.8247861   0.5693107  )
        55           N   tau(  55) = (   0.0714286   0.7835468   0.5693107  )
        56           B   tau(  56) = (   0.5714286   0.0824786   0.5693107  )
        57           N   tau(  57) = (   0.6428571   0.0412393   0.5693107  )
        58           B   tau(  58) = (   0.5000000   0.2061965   0.5693107  )
        59           N   tau(  59) = (   0.5714286   0.1649572   0.5693107  )
        60           B   tau(  60) = (   0.4285714   0.3299144   0.5693107  )
[...]
        84           B   tau(  84) = (   0.8571429   0.0824786   0.5693107  )
        85           N   tau(  85) = (   0.9285714   0.0412393   0.5693107  )
        86           B   tau(  86) = (   0.7857143   0.2061965   0.5693107  )
        87           N   tau(  87) = (   0.8571429   0.1649572   0.5693107  )
        88           B   tau(  88) = (   0.7142857   0.3299144   0.5693107  )
        89           N   tau(  89) = (   0.7857143   0.2886751   0.5693107  )
        90           B   tau(  90) = (   0.6428571   0.4536324   0.5693107  )
        91           N   tau(  91) = (   0.7142857   0.4123930   0.5693107  )
        92           B   tau(  92) = (   0.5714286   0.5773503   0.5693107  )
        93           N   tau(  93) = (   0.6428571   0.5361110   0.5693107  )
        94           B   tau(  94) = (   0.5000000   0.7010682   0.5693107  )
        95           N   tau(  95) = (   0.5714286   0.6598289   0.5693107  )
        96           B   tau(  96) = (   0.4285714   0.8247861   0.5693107  )
        97           N   tau(  97) = (   0.5000000   0.7835468   0.5693107  )
        98           C   tau(  98) = (   0.0000000   0.0824786   0.5693107  )

   Crystallographic axes

     site n.     atom                  positions (cryst. coord.)
         1           N   tau(   1) = (  0.0952381  0.0476190  0.5693107  )
         2           B   tau(   2) = (  0.0476190  0.2380952  0.5693107  )
         3           N   tau(   3) = (  0.0952381  0.1904762  0.5693107  )
         4           B   tau(   4) = (  0.0476190  0.3809524  0.5693107  )
         5           N   tau(   5) = (  0.0952381  0.3333333  0.5693107  )
         6           B   tau(   6) = (  0.0476190  0.5238095  0.5693107  )
[...]
     atom   19 type  3   force =     0.00000000    0.00000000    0.00000000
     atom   20 type  1   force =     0.00000000    0.00000000    0.00000000
     atom   21 type  3   force =     0.00000000    0.00000000    0.00000000
     atom   22 type  1   force =     0.00000000    0.00000000    0.00000000
     atom   23 type  3   force =     0.00000000    0.00000000    0.00000000
     atom   24 type  1   force =     0.00000000    0.00000000    0.00000000
     atom   25 type  3   force =     0.00000000    0.00000000    0.00000000
     atom   26 type  1   force =     0.00000000    0.00000000    0.00000000
     atom   27 type  3   force =     0.00000000    0.00000000    0.00000000
     atom   28 type  1   force =     0.00000000    0.00000000    0.00000000
     atom   29 type  3   force =     0.00000000    0.00000000    0.00000000
     atom   30 type  1   force =     0.00000000    0.00000000    0.00000000
     atom   31 type  3   force =     0.00000000    0.00000000    0.00000000
     atom   32 type  1   force =     0.00000000    0.00000000    0.00000000
     atom   33 type  3   force =     0.00000000    0.00000000    0.00000000
     atom   34 type  1   force =     0.00000000    0.00000000    0.00000000
     atom   35 type  3   force =     0.00000000    0.00000000    0.00000000
     atom   36 type  1   force =     0.00000000    0.00000000    0.00000000
     atom   37 type  3   force =     0.00000000    0.00000000    0.00000000
     atom   38 type  1   force =     0.00000000    0.00000000    0.00000000
     atom   39 type  3   force =     0.00000000    0.00000000    0.00000000
     atom   40 type  1   force =     0.00000000    0.00000000    0.00000000
     atom   41 type  3   force =     0.00000000    0.00000000    0.00000000
     atom   42 type  1   force =     0.00000000    0.00000000    0.00000000
     atom   43 type  3   force =     0.00000000    0.00000000    0.00000000
     atom   44 type  1   force =     0.00000000    0.00000000    0.00000000
     atom   45 type  3   force =     0.00000000    0.00000000    0.00000000
     atom   46 type  1   force =     0.00000000    0.00000000    0.00000000
     atom   47 type  3   force =     0.00000000    0.00000000    0.00000000
     atom   48 type  1   force =     0.00000000    0.00000000    0.00000000
     atom   49 type  3   force =     0.00000000    0.00000000    0.00000000
     atom   50 type  1   force =     0.00000000    0.00000000    0.00000000
     atom   51 type  3   force =     0.00000000    0.00000000    0.00000000
     atom   52 type  1   force =     0.00000000    0.00000000    0.00000000
     atom   53 type  3   force =     0.00000000    0.00000000    0.00000000
     atom   54 type  1   force =     0.00000000    0.00000000    0.00000000
     atom   55 type  3   force =     0.00000000    0.00000000    0.00000000
     atom   56 type  1   force =     0.00000000    0.00000000    0.00000000
     atom   57 type  3   force =     0.00000000    0.00000000    0.00000000
     atom   58 type  1   force =     0.00000000    0.00000000    0.00000000
     atom   59 type  3   force =     0.00000000    0.00000000    0.00000000
     atom   60 type  1   force =     0.00000000    0.00000000    0.00000000
[...]
     atom   84 type  1   force =     0.00000000    0.00000000    0.00000000
     atom   85 type  3   force =     0.00000000    0.00000000    0.00000000
     atom   86 type  1   force =     0.00000000    0.00000000    0.00000000
     atom   87 type  3   force =     0.00000000    0.00000000    0.00000000
     atom   88 type  1   force =     0.00000000    0.00000000    0.00000000
     atom   89 type  3   force =     0.00000000    0.00000000    0.00000000
     atom   90 type  1   force =     0.00000000    0.00000000    0.00000000
     atom   91 type  3   force =     0.00000000    0.00000000    0.00000000
     atom   92 type  1   force =     0.00000000    0.00000000    0.00000000
     atom   93 type  3   force =     0.00000000    0.00000000    0.00000000
     atom   94 type  1   force =     0.00000000    0.00000000    0.00000000
     atom   95 type  3   force =     0.00000000    0.00000000    0.00000000
     atom   96 type  1   force =     0.00000000    0.00000000    0.00000000
     atom   97 type  3   force =     0.00000000    0.00000000    0.00000000
     atom   98 type  2   force =     0.00000000    0.00000000    0.00000000
     The SCF correction term to forces
     atom    1 type  3   force =     0.00000065   -0.00000038   -0.00000002
     atom    2 type  1   force =     0.00000005    0.00000002   -0.00000000
     atom    3 type  3   force =     0.00000000    0.00000073   -0.00000002
     atom    4 type  1   force =    -0.00000015   -0.00000021   -0.00000000
     atom    5 type  3   force =     0.00000042   -0.00000031    0.00000000
     atom    6 type  1   force =    -0.00000011   -0.00000009   -0.00000000
     atom    7 type  3   force =    -0.00000055    0.00000000   -0.00000000
     atom    8 type  1   force =    -0.00000013   -0.00000005   -0.00000000
     atom    9 type  3   force =    -0.00000104   -0.00000060   -0.00000001
     atom   10 type  1   force =    -0.00000026   -0.00000002    0.00000000
     atom   11 type  3   force =    -0.00000027   -0.00000048   -0.00000000
     atom   12 type  1   force =     0.00000004    0.00000004   -0.00000000
     atom   13 type  3   force =    -0.00000005    0.00000051    0.00000001
     atom   14 type  1   force =    -0.00000001   -0.00000006   -0.00000000
     atom   15 type  3   force =    -0.00000047   -0.00000021    0.00000001
     atom   16 type  1   force =    -0.00000005    0.00000002   -0.00000000
     atom   17 type  3   force =    -0.00000016   -0.00000010    0.00000001
     atom   18 type  1   force =    -0.00000000   -0.00000038    0.00000000
     atom   19 type  3   force =    -0.00000042   -0.00000031    0.00000000
     atom   20 type  1   force =     0.00000008   -0.00000016   -0.00000000
     atom   21 type  3   force =     0.00000000    0.00000096   -0.00000001
     atom   22 type  1   force =    -0.00000005   -0.00000003   -0.00000000
     atom   23 type  3   force =    -0.00000009   -0.00000006   -0.00000001
     atom   24 type  1   force =    -0.00000010    0.00000015   -0.00000000
     atom   25 type  3   force =    -0.00000011   -0.00000004   -0.00000001
     atom   26 type  1   force =    -0.00000033    0.00000019    0.00000000
     atom   27 type  3   force =     0.00000084   -0.00000048   -0.00000000
     atom   28 type  1   force =    -0.00000011    0.00000024    0.00000000
     atom   29 type  3   force =     0.00000027    0.00000047   -0.00000000
     atom   30 type  1   force =     0.00000006    0.00000003   -0.00000000
     atom   31 type  3   force =    -0.00000035   -0.00000018   -0.00000000
     atom   32 type  1   force =     0.00000015   -0.00000021   -0.00000000
     atom   33 type  3   force =    -0.00000033   -0.00000021   -0.00000000
     atom   34 type  1   force =    -0.00000008   -0.00000016   -0.00000000
     atom   35 type  3   force =     0.00000055    0.00000000   -0.00000000
     atom   36 type  1   force =    -0.00000000   -0.00000015   -0.00000000
     atom   37 type  3   force =     0.00000009   -0.00000006   -0.00000001
     atom   38 type  1   force =    -0.00000013    0.00000008   -0.00000000
     atom   39 type  3   force =     0.00000000   -0.00000001   -0.00000001
     atom   40 type  1   force =    -0.00000018    0.00000002   -0.00000000
     atom   41 type  3   force =    -0.00000003    0.00000011   -0.00000001
     atom   42 type  1   force =    -0.00000002    0.00000014   -0.00000000
     atom   43 type  3   force =    -0.00000000    0.00000120   -0.00000000
     atom   44 type  1   force =     0.00000009    0.00000010   -0.00000000
     atom   45 type  3   force =    -0.00000009    0.00000085   -0.00000000
     atom   46 type  1   force =     0.00000013    0.00000002   -0.00000000
     atom   47 type  3   force =     0.00000014    0.00000009   -0.00000001
     atom   48 type  1   force =     0.00000011   -0.00000009   -0.00000000
     atom   49 type  3   force =     0.00000070   -0.00000050   -0.00000001
     atom   50 type  1   force =     0.00000005   -0.00000003   -0.00000000
     atom   51 type  3   force =     0.00000104   -0.00000060   -0.00000001
     atom   52 type  1   force =     0.00000013    0.00000008   -0.00000000
     atom   53 type  3   force =     0.00000011   -0.00000004   -0.00000001
     atom   54 type  1   force =    -0.00000000    0.00000005   -0.00000000
     atom   55 type  3   force =     0.00000003    0.00000011   -0.00000001
     atom   56 type  1   force =     0.00000002    0.00000014   -0.00000000
     atom   57 type  3   force =    -0.00000027    0.00000047   -0.00000000
     atom   58 type  1   force =     0.00000000    0.00000014   -0.00000000
     atom   59 type  3   force =     0.00000009    0.00000085   -0.00000000
     atom   60 type  1   force =     0.00000019    0.00000011   -0.00000000
[...]
     atom   84 type  1   force =     0.00000001   -0.00000006   -0.00000000
     atom   85 type  3   force =    -0.00000065   -0.00000038   -0.00000002
     atom   86 type  1   force =    -0.00000006    0.00000003   -0.00000000
     atom   87 type  3   force =     0.00000016   -0.00000010    0.00000001
     atom   88 type  1   force =    -0.00000013    0.00000002   -0.00000000
     atom   89 type  3   force =     0.00000033   -0.00000021   -0.00000000
     atom   90 type  1   force =    -0.00000012   -0.00000007   -0.00000000
     atom   91 type  3   force =    -0.00000070   -0.00000050   -0.00000001
     atom   92 type  1   force =    -0.00000005   -0.00000013   -0.00000000
     atom   93 type  3   force =    -0.00000079   -0.00000036   -0.00000000
     atom   94 type  1   force =    -0.00000000   -0.00000007    0.00000000
     atom   95 type  3   force =    -0.00000002    0.00000041    0.00000000
     atom   96 type  1   force =    -0.00000004    0.00000004   -0.00000000
     atom   97 type  3   force =    -0.00000000    0.00000020    0.00000001
     atom   98 type  2   force =    -0.00000000    0.00000000   -0.00000002

     Total force =     0.005160     Total SCF correction =     0.000005

     Computing stress (Cartesian axis) and pressure

     negative rho (up, down):  1.618E-03 1.618E-03
          total   stress  (Ry/bohr**3)                   (kbar)     P=   -2.95
  -0.00002530   0.00000000   0.00000000         -3.72      0.00      0.00
   0.00000000  -0.00002531  -0.00000000          0.00     -3.72     -0.00
   0.00000000  -0.00000000  -0.00000952          0.00     -0.00     -1.40

     kinetic stress (kbar)   2294.92     -0.00      0.00
                               -0.00   2294.92     -0.00
                                0.00     -0.00   2574.10

     local   stress (kbar) -45440.15     -0.00      0.00
                               -0.00 -45440.13      0.00
                                0.00      0.00  44266.96

     nonloc. stress (kbar)    787.53     -0.00      0.00
                               -0.00    787.53     -0.00
                                0.00     -0.00    734.16

     hartree stress (kbar)  21349.16      0.00      0.00
                                0.00  21349.16     -0.00
                                0.00     -0.00 -20867.92

     exc-cor stress (kbar)   -316.25      0.00      0.00
                                0.00   -316.25     -0.00
                                0.00     -0.00   -338.47

     corecor stress (kbar)   -245.48     -0.00     -0.00
                               -0.00   -245.48     -0.00
                               -0.00     -0.00   -237.69

     ewald   stress (kbar)  21566.54      0.00     -0.00
                                0.00  21566.53     -0.00
                               -0.00     -0.00 -26132.54

     hubbard stress (kbar)      0.00      0.00      0.00
                                0.00      0.00      0.00
                                0.00      0.00      0.00

     london  stress (kbar)      0.00      0.00      0.00
                                0.00      0.00      0.00
                                0.00      0.00      0.00

     XDM     stress (kbar)      0.00      0.00      0.00
                                0.00      0.00      0.00
                                0.00      0.00      0.00

     dft-nl  stress (kbar)      0.00      0.00      0.00
                                0.00      0.00      0.00
                                0.00      0.00      0.00

     TS-vdW  stress (kbar)      0.00      0.00      0.00
                                0.00      0.00      0.00
                                0.00      0.00      0.00

     bfgs converged in   8 scf cycles and   7 bfgs steps
     (criteria: energy <  1.0E-04 Ry, force <  1.0E-03 Ry/Bohr)

     End of BFGS Geometry Optimization

     Final energy   =   -1566.6997044259 Ry
Begin final coordinates

ATOMIC_POSITIONS (angstrom)
N        1.190671344   0.761349742  10.000138525
B       -1.269707503   3.609528277   9.999944905
N        0.000000000   2.823671633  10.000137442
B       -2.509278330   5.789339407   9.999932327
N       -1.246470805   5.044943927  10.000046838
B       -3.764438611   7.966312071   9.999936852
N       -2.506538039   7.234615932  10.000052591
B       -5.020312289  10.141637174   9.999936225
N       -3.765316796   9.416010644  10.000052667
B       -6.278047632  12.317235163   9.999931414
N       -5.025038094  11.596912117  10.000052267
B       -7.546141436  14.480684893   9.999946702
N       -6.291362020  13.783081325  10.000046453
B        2.506116303   1.467929422   9.999948246
N        3.737669735   0.730168866  10.000047608
B        1.269707503   3.609528277   9.999944905
N        2.509035610   2.897318749  10.000051975
B        0.000000000   5.789848638   9.999930398
N        1.246470805   5.044943927  10.000046838
B       -1.254950853   7.966186294   9.999935549
N        0.000000000   7.232351079  10.000051817
B       -2.510244674  10.140673176   9.999935766
N       -1.254972992   9.413447666  10.000051409
B       -3.765685744  12.315083694   9.999935293
N       -2.512371381  11.591410750  10.000052089
B       -5.022976387  14.490090476   9.999930965
N       -3.773732008  13.768829953  10.000051910
B        5.013774264   1.451555269   9.999933085
N        6.264052462   0.726590685  10.000053712
B        3.778103302   3.629960756   9.999936716
N        5.016709868   2.897303191  10.000054873
B        2.509278330   5.789339407   9.999932327
N        3.762829496   5.068978110  10.000054410
B        1.254950853   7.966186294   9.999935549
N        2.506538039   7.234615932  10.000052591
B        0.000000000  10.140974459   9.999934030
N        1.254972992   9.413447666  10.000051409
B       -1.254868164  12.314565336   9.999935606
N        0.000000000  11.590017820  10.000051045
B       -2.510735169  14.488760301   9.999936150
N       -1.257398713  13.765155462  10.000052531
B        7.526676181   1.450088867   9.999939737
N        8.782550625   0.726054658  10.000054932
B        6.278199728   3.624029301   9.999941160
N        7.527541675   2.897835775  10.000056124
B        5.022976507   5.798050375   9.999940544
N        6.272996284   5.070396621  10.000056557
B        3.764438611   7.966312071   9.999936852
N        5.018695016   7.243152579  10.000054607
B        2.510244674  10.140673176   9.999935766
N        3.765316796   9.416010644  10.000052667
B        1.254868165  12.314565336   9.999935606
N        2.512371381  11.591410750  10.000052089
B        0.000000000  14.488679074   9.999936887
N        1.257398713  13.765155462  10.000052531
B       10.038425069   1.450088867   9.999939737
N       11.301048789   0.726590685  10.000053712
B        8.782550625   3.623473714   9.999940602
N       10.037559575   2.897835775  10.000056124
B        7.529494254   5.795796838   9.999941950
[...]
B       15.058984947   1.467929422   9.999948246
N       16.374429906   0.761349742  10.000138525
B       13.786997949   3.629960756   9.999936716
N       15.056065641   2.897318749  10.000051975
B       12.542124743   5.798050375   9.999940544
N       13.802271755   5.068978110  10.000054410
B       11.290432894   7.967172769   9.999938707
N       12.546406234   7.243152579  10.000054607
B       10.037775993  10.135767411   9.999936968
N       11.291401102   9.416928169  10.000053514
B        8.782550625  12.297946714   9.999934606
N       10.036438767  11.591692169  10.000052755
B        7.546141437  14.480684893   9.999946702
N        8.782550625  13.763392661  10.000051202
C        0.000000000   1.448807402  10.000157672
End final coordinates

     Writing output data file aiida.save

     General routines

     Parallel routines

     PAW routines

   This run was terminated on:  21:54:38  29Feb2020

   JOB DONE.