     Program PWSCF v.6.1 starts on  6Mar2020 at 13:25:42

     Current dimensions of program PWSCF are:
     Max number of different atomic species (ntypx) = 10
     Max number of k-points (npk) =  40000
     Max angular momentum in pseudopotentials (lmaxx) =  3
               file B.pbe-n-kjpaw_psl.0.1.UPF: wavefunction(s)  2P renormalized
               file C.pbe-n-kjpaw_psl.1.0.0.UPF: wavefunction(s)  2S 2P renormalized

     Subspace diagonalization in iterative solution of the eigenvalue problem:
     a serial algorithm will be used

     bravais-lattice index     =            0
     lattice parameter (alat)  =      42.6770  a.u.
     unit-cell volume          =   67315.1192 (a.u.)^3
     number of atoms/cell      =          162
     number of atomic types    =            3
     number of electrons       =       648.00
     number of Kohn-Sham states=          389
     kinetic-energy cutoff     =      55.0000  Ry
     charge density cutoff     =     440.0000  Ry
     convergence threshold     =      1.0E-09
     mixing beta               =       0.3000
     number of iterations used =            8  plain     mixing
     Exchange-correlation      = PBE ( 1  4  3  4 0 0)
     nstep                     =          200

     celldm(1)=  42.677011  celldm(2)=   0.000000  celldm(3)=   0.000000
     celldm(4)=   0.000000  celldm(5)=   0.000000  celldm(6)=   0.000000

     crystal axes: (cart. coord. in units of alat)
               a(1) = (   1.000000   0.000000   0.000000 )
               a(2) = (  -0.500000   0.866025   0.000000 )
               a(3) = (   0.000000   0.000000   1.000000 )

     reciprocal axes: (cart. coord. in units 2 pi/alat)
               b(1) = (  1.000000  0.577350  0.000000 )
               b(2) = (  0.000000  1.154701  0.000000 )
               b(3) = (  0.000000  0.000000  1.000000 )

     PseudoPot. # 1 for  B read from file:
     ./pseudo/B.pbe-n-kjpaw_psl.0.1.UPF
     MD5 check sum: b4345a612e0782cca08559f453f3313f
     Pseudo is Projector augmented-wave + core cor, Zval =  3.0
     Generated using "atomic" code by A. Dal Corso  v.5.0.99 svn rev. 10869
     Shape of augmentation charge: BESSEL
     Using radial grid of 1059 points,  4 beta functions with:
                l(1) =   0
                l(2) =   0
                l(3) =   1
                l(4) =   1
     Q(r) pseudized with 0 coefficients

     PseudoPot. # 2 for  C read from file:
     ./pseudo/C.pbe-n-kjpaw_psl.1.0.0.UPF
     MD5 check sum: 5d2aebdfa2cae82b50a7e79e9516da0f
     Pseudo is Projector augmented-wave + core cor, Zval =  4.0
     Generated using "atomic" code by A. Dal Corso  v.5.1
     Shape of augmentation charge: PSQ
     Using radial grid of 1073 points,  4 beta functions with:
                l(1) =   0
                l(2) =   0
                l(3) =   1
                l(4) =   1
     Q(r) pseudized with 0 coefficients

     PseudoPot. # 3 for  N read from file:
     ./pseudo/N.pbe.theos.UPF
     MD5 check sum: 1fde47ee573fe9ed3106b9b4217eb757
     Pseudo is Ultrasoft + core correction, Zval =  5.0
     Generated using "atomic" code by A. Dal Corso  v.5.1
     Using radial grid of 1085 points,  4 beta functions with:
                l(1) =   0
                l(2) =   0
                l(3) =   1
                l(4) =   1
     Q(r) pseudized with 0 coefficients

     atomic species   valence    mass     pseudopotential
        B              3.00    10.81100      B( 1.00)
        C              4.00    12.01070      C( 1.00)
        N              5.00    14.00670      N( 1.00)

     Starting magnetic structure
     atomic species   magnetization
        B            0.400
        C            0.000
        N            0.000

      6 Sym. Ops. (no inversion) found ( 4 have fractional translation)

                                    s                        frac. trans.

      isym =  1     identity

 cryst.   s( 1) = (     1          0          0      )
                  (     0          1          0      )
                  (     0          0          1      )

 cart.    s( 1) = (  1.0000000  0.0000000  0.0000000 )
                  (  0.0000000  1.0000000  0.0000000 )
                  (  0.0000000  0.0000000  1.0000000 )

      isym =  2     120 deg rotation - cryst. axis [0,0,1]

 cryst.   s( 2) = (     0          1          0      )    f =( -0.1111111 )
                  (    -1         -1          0      )       ( -0.1111111 )
                  (     0          0          1      )       (  0.0000000 )

 cart.    s( 2) = ( -0.5000000 -0.8660254  0.0000000 )    f =( -0.0555556 )
                  (  0.8660254 -0.5000000  0.0000000 )       ( -0.0962250 )
                  (  0.0000000  0.0000000  1.0000000 )       (  0.0000000 )

      isym =  3     120 deg rotation - cryst. axis [0,0,-1]

[...]

      isym =  4     inv. 180 deg rotation - cart. axis [1,0,0]

 cryst.   s( 4) = (    -1          0          0      )
                  (     1          1          0      )
                  (     0          0          1      )

 cart.    s( 4) = ( -1.0000000  0.0000000  0.0000000 )
                  (  0.0000000  1.0000000  0.0000000 )
                  (  0.0000000  0.0000000  1.0000000 )

      isym =  5     inv. 180 deg rotation - cryst. axis [0,1,0]

[...]

      isym =  6     inv. 180 deg rotation - cryst. axis [1,1,0]

 cryst.   s( 6) = (     0         -1          0      )    f =( -0.1111111 )
                  (    -1          0          0      )       ( -0.1111111 )
                  (     0          0          1      )       (  0.0000000 )

 cart.    s( 6) = (  0.5000000 -0.8660254  0.0000000 )    f =( -0.0555556 )
                  ( -0.8660254 -0.5000000  0.0000000 )       ( -0.0962250 )
                  (  0.0000000  0.0000000  1.0000000 )       (  0.0000000 )

   Cartesian axes

     site n.     atom                  positions (alat units)
         1           N   tau(   1) = (   0.0555556   0.0320750   0.4427972  )
         2           B   tau(   2) = (  -0.0555556   0.1603751   0.4427972  )
         3           N   tau(   3) = (   0.0000000   0.1283001   0.4427972  )
         4           B   tau(   4) = (  -0.1111111   0.2566001   0.4427972  )
         5           N   tau(   5) = (  -0.0555556   0.2245251   0.4427972  )
         6           B   tau(   6) = (  -0.1666667   0.3528252   0.4427972  )
         7           N   tau(   7) = (  -0.1111111   0.3207501   0.4427972  )
         8           B   tau(   8) = (  -0.2222222   0.4490502   0.4427972  )
         9           N   tau(   9) = (  -0.1666667   0.4169752   0.4427972  )
        10           B   tau(  10) = (  -0.2777778   0.5452753   0.4427972  )
        11           N   tau(  11) = (  -0.2222222   0.5132002   0.4427972  )
        12           B   tau(  12) = (  -0.3333333   0.6415003   0.4427972  )
        13           N   tau(  13) = (  -0.2777778   0.6094253   0.4427972  )
        14           B   tau(  14) = (  -0.3888889   0.7377253   0.4427972  )
        15           N   tau(  15) = (  -0.3333333   0.7056503   0.4427972  )
        16           B   tau(  16) = (  -0.4444444   0.8339504   0.4427972  )
        17           N   tau(  17) = (  -0.3888889   0.8018754   0.4427972  )
        18           B   tau(  18) = (   0.1111111   0.0641500   0.4427972  )
        19           N   tau(  19) = (   0.1666667   0.0320750   0.4427972  )
        20           B   tau(  20) = (   0.0555556   0.1603751   0.4427972  )
        21           N   tau(  21) = (   0.1111111   0.1283001   0.4427972  )
        22           B   tau(  22) = (   0.0000000   0.2566001   0.4427972  )
        23           N   tau(  23) = (   0.0555556   0.2245251   0.4427972  )
        24           B   tau(  24) = (  -0.0555556   0.3528252   0.4427972  )
        25           N   tau(  25) = (   0.0000000   0.3207501   0.4427972  )
        26           B   tau(  26) = (  -0.1111111   0.4490502   0.4427972  )
        27           N   tau(  27) = (  -0.0555556   0.4169752   0.4427972  )
        28           B   tau(  28) = (  -0.1666667   0.5452753   0.4427972  )
        29           N   tau(  29) = (  -0.1111111   0.5132002   0.4427972  )
        30           B   tau(  30) = (  -0.2222222   0.6415003   0.4427972  )
        31           N   tau(  31) = (  -0.1666667   0.6094253   0.4427972  )
        32           B   tau(  32) = (  -0.2777778   0.7377253   0.4427972  )
        33           N   tau(  33) = (  -0.2222222   0.7056503   0.4427972  )
        34           B   tau(  34) = (  -0.3333333   0.8339504   0.4427972  )
        35           N   tau(  35) = (  -0.2777778   0.8018754   0.4427972  )
        36           B   tau(  36) = (   0.2222222   0.0641500   0.4427972  )
        37           N   tau(  37) = (   0.2777778   0.0320750   0.4427972  )
        38           B   tau(  38) = (   0.1666667   0.1603751   0.4427972  )
        39           N   tau(  39) = (   0.2222222   0.1283001   0.4427972  )
        40           B   tau(  40) = (   0.1111111   0.2566001   0.4427972  )
        41           N   tau(  41) = (   0.1666667   0.2245251   0.4427972  )
        42           B   tau(  42) = (   0.0555556   0.3528252   0.4427972  )
        43           N   tau(  43) = (   0.1111111   0.3207501   0.4427972  )
        44           B   tau(  44) = (   0.0000000   0.4490502   0.4427972  )
        45           N   tau(  45) = (   0.0555556   0.4169752   0.4427972  )
        46           B   tau(  46) = (  -0.0555556   0.5452753   0.4427972  )
        47           N   tau(  47) = (   0.0000000   0.5132002   0.4427972  )
        48           B   tau(  48) = (  -0.1111111   0.6415003   0.4427972  )
        49           N   tau(  49) = (  -0.0555556   0.6094253   0.4427972  )
        50           B   tau(  50) = (  -0.1666667   0.7377253   0.4427972  )
        51           N   tau(  51) = (  -0.1111111   0.7056503   0.4427972  )
        52           B   tau(  52) = (  -0.2222222   0.8339504   0.4427972  )
        53           N   tau(  53) = (  -0.1666667   0.8018754   0.4427972  )
        54           B   tau(  54) = (   0.3333333   0.0641500   0.4427972  )
        55           N   tau(  55) = (   0.3888889   0.0320750   0.4427972  )
        56           B   tau(  56) = (   0.2777778   0.1603751   0.4427972  )
        57           N   tau(  57) = (   0.3333333   0.1283001   0.4427972  )
        58           B   tau(  58) = (   0.2222222   0.2566001   0.4427972  )
        59           N   tau(  59) = (   0.2777778   0.2245251   0.4427972  )
        60           B   tau(  60) = (   0.1666667   0.3528252   0.4427972  )
[...]
       148           B   tau( 148) = (   0.7777778   0.2566001   0.4427972  )
       149           N   tau( 149) = (   0.8333333   0.2245251   0.4427972  )
       150           B   tau( 150) = (   0.7222222   0.3528252   0.4427972  )
       151           N   tau( 151) = (   0.7777778   0.3207501   0.4427972  )
       152           B   tau( 152) = (   0.6666667   0.4490502   0.4427972  )
       153           N   tau( 153) = (   0.7222222   0.4169752   0.4427972  )
       154           B   tau( 154) = (   0.6111111   0.5452753   0.4427972  )
       155           N   tau( 155) = (   0.6666667   0.5132002   0.4427972  )
[...]
     atom   19 type  3   force =     0.00000000    0.00000000    0.00000000
     atom   20 type  1   force =     0.00000000    0.00000000    0.00000000
     atom   21 type  3   force =     0.00000000    0.00000000    0.00000000
     atom   22 type  1   force =     0.00000000    0.00000000    0.00000000
     atom   23 type  3   force =     0.00000000    0.00000000    0.00000000
     atom   24 type  1   force =     0.00000000    0.00000000    0.00000000
     atom   25 type  3   force =     0.00000000    0.00000000    0.00000000
     atom   26 type  1   force =     0.00000000    0.00000000    0.00000000
     atom   27 type  3   force =     0.00000000    0.00000000    0.00000000
     atom   28 type  1   force =     0.00000000    0.00000000    0.00000000
     atom   29 type  3   force =     0.00000000    0.00000000    0.00000000
     atom   30 type  1   force =     0.00000000    0.00000000    0.00000000
     atom   31 type  3   force =     0.00000000    0.00000000    0.00000000
     atom   32 type  1   force =     0.00000000    0.00000000    0.00000000
     atom   33 type  3   force =     0.00000000    0.00000000    0.00000000
     atom   34 type  1   force =     0.00000000    0.00000000    0.00000000
     atom   35 type  3   force =     0.00000000    0.00000000    0.00000000
     atom   36 type  1   force =     0.00000000    0.00000000    0.00000000
     atom   37 type  3   force =     0.00000000    0.00000000    0.00000000
     atom   38 type  1   force =     0.00000000    0.00000000    0.00000000
     atom   39 type  3   force =     0.00000000    0.00000000    0.00000000
     atom   40 type  1   force =     0.00000000    0.00000000    0.00000000
     atom   41 type  3   force =     0.00000000    0.00000000    0.00000000
     atom   42 type  1   force =     0.00000000    0.00000000    0.00000000
     atom   43 type  3   force =     0.00000000    0.00000000    0.00000000
     atom   44 type  1   force =     0.00000000    0.00000000    0.00000000
     atom   45 type  3   force =     0.00000000    0.00000000    0.00000000
     atom   46 type  1   force =     0.00000000    0.00000000    0.00000000
     atom   47 type  3   force =     0.00000000    0.00000000    0.00000000
     atom   48 type  1   force =     0.00000000    0.00000000    0.00000000
     atom   49 type  3   force =     0.00000000    0.00000000    0.00000000
     atom   50 type  1   force =     0.00000000    0.00000000    0.00000000
     atom   51 type  3   force =     0.00000000    0.00000000    0.00000000
     atom   52 type  1   force =     0.00000000    0.00000000    0.00000000
     atom   53 type  3   force =     0.00000000    0.00000000    0.00000000
     atom   54 type  1   force =     0.00000000    0.00000000    0.00000000
     atom   55 type  3   force =     0.00000000    0.00000000    0.00000000
     atom   56 type  1   force =     0.00000000    0.00000000    0.00000000
     atom   57 type  3   force =     0.00000000    0.00000000    0.00000000
     atom   58 type  1   force =     0.00000000    0.00000000    0.00000000
     atom   59 type  3   force =     0.00000000    0.00000000    0.00000000
     atom   60 type  1   force =     0.00000000    0.00000000    0.00000000
[...]
     atom  148 type  1   force =     0.00000000    0.00000000    0.00000000
     atom  149 type  3   force =     0.00000000    0.00000000    0.00000000
     atom  150 type  1   force =     0.00000000    0.00000000    0.00000000
     atom  151 type  3   force =     0.00000000    0.00000000    0.00000000
     atom  152 type  1   force =     0.00000000    0.00000000    0.00000000
     atom  153 type  3   force =     0.00000000    0.00000000    0.00000000
     atom  154 type  1   force =     0.00000000    0.00000000    0.00000000
     atom  155 type  3   force =     0.00000000    0.00000000    0.00000000
     atom  156 type  1   force =     0.00000000    0.00000000    0.00000000
     atom  157 type  3   force =     0.00000000    0.00000000    0.00000000
     atom  158 type  1   force =     0.00000000    0.00000000    0.00000000
     atom  159 type  3   force =     0.00000000    0.00000000    0.00000000
     atom  160 type  1   force =     0.00000000    0.00000000    0.00000000
     atom  161 type  3   force =     0.00000000    0.00000000    0.00000000
     atom  162 type  2   force =     0.00000000    0.00000000    0.00000000
     The SCF correction term to forces
     atom    1 type  3   force =     0.00000000   -0.00000000    0.00000000
     atom    2 type  1   force =     0.00000007    0.00000009    0.00000000
     atom    3 type  3   force =    -0.00000000    0.00000000    0.00000000
     atom    4 type  1   force =     0.00000006    0.00000002    0.00000000
     atom    5 type  3   force =     0.00000017    0.00000036   -0.00000000
     atom    6 type  1   force =     0.00000001   -0.00000002   -0.00000000
     atom    7 type  3   force =     0.00000010    0.00000001    0.00000000
     atom    8 type  1   force =    -0.00000002    0.00000008   -0.00000000
     atom    9 type  3   force =    -0.00000018    0.00000022   -0.00000000
     atom   10 type  1   force =     0.00000006   -0.00000006   -0.00000000
     atom   11 type  3   force =    -0.00000004   -0.00000002   -0.00000000
     atom   12 type  1   force =    -0.00000001    0.00000002   -0.00000000
     atom   13 type  3   force =     0.00000010   -0.00000027   -0.00000000
     atom   14 type  1   force =     0.00000005    0.00000005    0.00000000
     atom   15 type  3   force =     0.00000006    0.00000008    0.00000000
     atom   16 type  1   force =     0.00000012    0.00000002    0.00000000
     atom   17 type  3   force =     0.00000040   -0.00000004   -0.00000000
     atom   18 type  1   force =     0.00000005   -0.00000011    0.00000000
     atom   19 type  3   force =     0.00000023   -0.00000033   -0.00000000
     atom   20 type  1   force =    -0.00000007    0.00000009    0.00000000
     atom   21 type  3   force =     0.00000011    0.00000007   -0.00000000
     atom   22 type  1   force =    -0.00000000    0.00000004   -0.00000000
     atom   23 type  3   force =    -0.00000017    0.00000036   -0.00000000
     atom   24 type  1   force =     0.00000006   -0.00000012    0.00000000
     atom   25 type  3   force =    -0.00000000    0.00000012    0.00000000
     atom   26 type  1   force =    -0.00000003    0.00000009   -0.00000000
     atom   27 type  3   force =    -0.00000008    0.00000021   -0.00000000
     atom   28 type  1   force =     0.00000008    0.00000005   -0.00000000
     atom   29 type  3   force =    -0.00000007    0.00000040    0.00000000
     atom   30 type  1   force =     0.00000007   -0.00000007   -0.00000000
     atom   31 type  3   force =     0.00000031   -0.00000026    0.00000000
     atom   32 type  1   force =    -0.00000007    0.00000012    0.00000000
     atom   33 type  3   force =     0.00000014   -0.00000018   -0.00000000
     atom   34 type  1   force =     0.00000004   -0.00000002   -0.00000000
     atom   35 type  3   force =     0.00000011   -0.00000006    0.00000000
     atom   36 type  1   force =    -0.00000002   -0.00000006    0.00000000
     atom   37 type  3   force =    -0.00000004   -0.00000009    0.00000000
     atom   38 type  1   force =     0.00000002    0.00000001    0.00000000
     atom   39 type  3   force =    -0.00000006   -0.00000035    0.00000000
     atom   40 type  1   force =    -0.00000006    0.00000002    0.00000000
     atom   41 type  3   force =    -0.00000034    0.00000012    0.00000000
     atom   42 type  1   force =    -0.00000006   -0.00000012    0.00000000
     atom   43 type  3   force =    -0.00000010    0.00000001    0.00000000
     atom   44 type  1   force =    -0.00000000    0.00000011    0.00000000
     atom   45 type  3   force =     0.00000008    0.00000021    0.00000000
     atom   46 type  1   force =     0.00000004    0.00000021    0.00000000
     atom   47 type  3   force =     0.00000000    0.00000049   -0.00000000
     atom   48 type  1   force =     0.00000020   -0.00000007    0.00000000
     atom   49 type  3   force =     0.00000026    0.00000015   -0.00000000
     atom   50 type  1   force =     0.00000009   -0.00000005    0.00000000
     atom   51 type  3   force =     0.00000042   -0.00000024   -0.00000000
     atom   52 type  1   force =    -0.00000014    0.00000000    0.00000000
     atom   53 type  3   force =     0.00000022   -0.00000003    0.00000000
     atom   54 type  1   force =    -0.00000002   -0.00000000   -0.00000000
     atom   55 type  3   force =     0.00000028    0.00000004   -0.00000000
     atom   56 type  1   force =    -0.00000000   -0.00000013    0.00000000
     atom   57 type  3   force =    -0.00000007   -0.00000021    0.00000000
     atom   58 type  1   force =    -0.00000011    0.00000006    0.00000000
     atom   59 type  3   force =    -0.00000011   -0.00000006   -0.00000000
     atom   60 type  1   force =    -0.00000001   -0.00000002   -0.00000000
[...]
     atom  148 type  1   force =     0.00000011    0.00000006    0.00000000
     atom  149 type  3   force =     0.00000034    0.00000012    0.00000000
     atom  150 type  1   force =    -0.00000009    0.00000006   -0.00000000
     atom  151 type  3   force =     0.00000022    0.00000005    0.00000000
     atom  152 type  1   force =     0.00000007    0.00000004    0.00000000
     atom  153 type  3   force =    -0.00000016    0.00000019    0.00000000
     atom  154 type  1   force =     0.00000001   -0.00000011   -0.00000000
     atom  155 type  3   force =     0.00000008   -0.00000023    0.00000000
     atom  156 type  1   force =     0.00000011    0.00000006    0.00000000
     atom  157 type  3   force =     0.00000015    0.00000017    0.00000000
     atom  158 type  1   force =    -0.00000000   -0.00000002    0.00000000
     atom  159 type  3   force =     0.00000027    0.00000023    0.00000000
     atom  160 type  1   force =    -0.00000012    0.00000002    0.00000000
     atom  161 type  3   force =    -0.00000000   -0.00000013   -0.00000000
     atom  162 type  2   force =    -0.00000000   -0.00000000   -0.00000000

     Total force =     0.005486     Total SCF correction =     0.000003

     Computing stress (Cartesian axis) and pressure

     negative rho (up, down):  3.427E-03 3.427E-03
          total   stress  (Ry/bohr**3)                   (kbar)     P=   -1.38
  -0.00001145   0.00000000   0.00000000         -1.68      0.00      0.00
   0.00000000  -0.00001145   0.00000000          0.00     -1.68      0.00
   0.00000000   0.00000000  -0.00000521          0.00      0.00     -0.77

     kinetic stress (kbar)   1784.36     -0.00      0.00
                               -0.00   1784.36      0.00
                                0.00      0.00   1997.91

     local   stress (kbar) -46826.76     -0.00     -0.00
                               -0.00 -46826.76     -0.00
                               -0.00     -0.00  45916.03

     nonloc. stress (kbar)    612.27     -0.00      0.00
                               -0.00    612.27      0.00
                                0.00      0.00    570.53

     hartree stress (kbar)  22330.86      0.00     -0.00
                                0.00  22330.86     -0.00
                               -0.00     -0.00 -21957.33

     exc-cor stress (kbar)   -246.34      0.00     -0.00
                                0.00   -246.34     -0.00
                               -0.00     -0.00   -263.59

     corecor stress (kbar)   -190.36      0.00     -0.00
                                0.00   -190.36      0.00
                               -0.00      0.00   -184.28

     ewald   stress (kbar)  22534.30      0.00      0.00
                                0.00  22534.30      0.00
                                0.00      0.00 -26080.04

     hubbard stress (kbar)      0.00      0.00      0.00
                                0.00      0.00      0.00
                                0.00      0.00      0.00

     london  stress (kbar)      0.00      0.00      0.00
                                0.00      0.00      0.00
                                0.00      0.00      0.00

     XDM     stress (kbar)      0.00      0.00      0.00
                                0.00      0.00      0.00
                                0.00      0.00      0.00

     dft-nl  stress (kbar)      0.00      0.00      0.00
                                0.00      0.00      0.00
                                0.00      0.00      0.00

     TS-vdW  stress (kbar)      0.00      0.00      0.00
                                0.00      0.00      0.00
                                0.00      0.00      0.00

     bfgs converged in   9 scf cycles and   8 bfgs steps
     (criteria: energy <  1.0E-04 Ry, force <  1.0E-03 Ry/Bohr)

     End of BFGS Geometry Optimization

     Final energy   =   -2585.5067449467 Ry
Begin final coordinates

ATOMIC_POSITIONS (angstrom)
N        1.190341172   0.761501338   9.999941954
B       -1.269655938   3.608922720  10.000007862
N        0.000000000   2.823232725   9.999941954
B       -2.509460504   5.788167494  10.000019784
N       -1.246529976   5.043030726   9.999986399
B       -3.763643801   7.965251252  10.000018484
N       -2.505194360   7.231140776   9.999985193
B       -5.019289283  10.140141774  10.000017998
N       -3.762767051   9.412056486   9.999984702
B       -6.274525160  12.314274088  10.000017998
N       -5.019576597  11.589397436   9.999984320
B       -7.530212861  14.489140235  10.000018484
N       -6.276804400  13.766496906   9.999984702
B       -8.788531054  16.663836711  10.000019784
N       -7.536746463  15.946044658   9.999985193
B      -10.055910106  18.827161347  10.000007862
N       -8.802373160  18.130135015   9.999986399
B        2.505596635   1.468210637  10.000007862
N        3.736007619   0.731128964   9.999986399
B        1.269655938   3.608922720  10.000007862
N        2.508643197   2.897110959   9.999984351
B        0.000000000   5.787496206  10.000019981
N        1.246529976   5.043030726   9.999986399
B       -1.254383442   7.963937599  10.000019165
N        0.000000000   7.227985829   9.999985661
B       -2.509728940  10.139765470  10.000018361
N       -1.254076855   9.409770176   9.999985172
B       -3.764787856  12.313850054  10.000017855
N       -2.509727089  11.587799926   9.999984617
B       -5.020070877  14.487805250  10.000018361
N       -3.766035327  13.763789625   9.999984617
B       -6.276720339  16.662880277  10.000019165
N       -5.024439304  15.940229501   9.999985172
B       -7.534382154  18.837428901  10.000019981
N       -6.286881546  18.117184089   9.999985661
B        5.012780254   1.452290500  10.000019784
N        6.260298701   0.727109270   9.999985193
B        3.778047987   3.630002156  10.000021224
N        5.015266595   2.897544117   9.999985156
B        2.509460504   5.788167494  10.000019784
N        3.762330022   5.067693920   9.999985156
B        1.254383443   7.963937599  10.000019165
N        2.505194361   7.231140776   9.999985193
B        0.000000000  10.139714200  10.000018552
N        1.254076855   9.409770176   9.999985172
B       -1.254969652  12.313968520  10.000018335
N        0.000000000  11.587273930   9.999984721
B       -2.509776159  14.487357144  10.000018335
N       -1.255276391  13.762717174   9.999984544
B       -3.765250808  16.661319903  10.000018552
N       -2.511627308  15.937540039   9.999984721
B       -5.022336896  18.835536131  10.000019165
N       -3.770362449  18.112354330   9.999985172
B        7.525281744   1.449903217  10.000018484
N        8.777813455   0.725741312   9.999984702
B        6.279327347   3.624546000  10.000018197
N        7.526311025   2.897491334   9.999984594
B        5.023962498   5.798901701  10.000018197
N        6.272307137   5.070063348   9.999984611
B        3.763643802   7.965251252  10.000018484
[...]
B       17.559739110   5.798901701  10.000018197
N       18.821371586   5.067693920   9.999985156
B       16.307878145   7.969534433  10.000018143
N       17.565895082   7.242348577   9.999984594
B       15.054639885  10.140545523  10.000017874
N       16.310223730   9.416361242   9.999984438
B       13.801108258  12.311387239  10.000018143
N       15.055269823  11.590005171   9.999984438
B       12.547215653  14.480847002  10.000018197
N       13.800355303  13.764454792   9.999984594
B       11.291850804  16.644290393  10.000021224
N       12.544787377  15.939056667   9.999985156
B       10.055910107  18.827161347  10.000007862
N       11.291850804  18.110072787   9.999984351
C        0.000000000   1.448745134   9.999933427
End final coordinates

     Writing output data file aiida.save

     General routines

     Parallel routines

     PAW routines

   This run was terminated on:  17:24:17   6Mar2020

   JOB DONE.