     Program PWSCF v.6.1 starts on 29Feb2020 at 20:24:39

     Current dimensions of program PWSCF are:
     Max number of different atomic species (ntypx) = 10
     Max number of k-points (npk) =  40000
     Max angular momentum in pseudopotentials (lmaxx) =  3
               file B.pbe-n-kjpaw_psl.0.1.UPF: wavefunction(s)  2P renormalized
               file C.pbe-n-kjpaw_psl.1.0.0.UPF: wavefunction(s)  2S 2P renormalized

     Subspace diagonalization in iterative solution of the eigenvalue problem:
     a serial algorithm will be used

     bravais-lattice index     =            0
     lattice parameter (alat)  =      23.7095  a.u.
     unit-cell volume          =   11542.3730 (a.u.)^3
     number of atoms/cell      =           50
     number of atomic types    =            3
     number of electrons       =       200.00
     number of Kohn-Sham states=          120
     kinetic-energy cutoff     =      55.0000  Ry
     charge density cutoff     =     440.0000  Ry
     convergence threshold     =      1.0E-09
     mixing beta               =       0.3000
     number of iterations used =            8  plain     mixing
     Exchange-correlation      = PBE ( 1  4  3  4 0 0)
     nstep                     =          200

     celldm(1)=  23.709451  celldm(2)=   0.000000  celldm(3)=   0.000000
     celldm(4)=   0.000000  celldm(5)=   0.000000  celldm(6)=   0.000000

     crystal axes: (cart. coord. in units of alat)
               a(1) = (   1.000000   0.000000   0.000000 )
               a(2) = (  -0.500000   0.866025   0.000000 )
               a(3) = (   0.000000   0.000000   1.000000 )

     reciprocal axes: (cart. coord. in units 2 pi/alat)
               b(1) = (  1.000000  0.577350  0.000000 )
               b(2) = (  0.000000  1.154701  0.000000 )
               b(3) = (  0.000000  0.000000  1.000000 )

     PseudoPot. # 1 for  B read from file:
     ./pseudo/B.pbe-n-kjpaw_psl.0.1.UPF
     MD5 check sum: b4345a612e0782cca08559f453f3313f
     Pseudo is Projector augmented-wave + core cor, Zval =  3.0
     Generated using "atomic" code by A. Dal Corso  v.5.0.99 svn rev. 10869
     Shape of augmentation charge: BESSEL
     Using radial grid of 1059 points,  4 beta functions with:
                l(1) =   0
                l(2) =   0
                l(3) =   1
                l(4) =   1
     Q(r) pseudized with 0 coefficients

     PseudoPot. # 2 for  C read from file:
     ./pseudo/C.pbe-n-kjpaw_psl.1.0.0.UPF
     MD5 check sum: 5d2aebdfa2cae82b50a7e79e9516da0f
     Pseudo is Projector augmented-wave + core cor, Zval =  4.0
     Generated using "atomic" code by A. Dal Corso  v.5.1
     Shape of augmentation charge: PSQ
     Using radial grid of 1073 points,  4 beta functions with:
                l(1) =   0
                l(2) =   0
                l(3) =   1
                l(4) =   1
     Q(r) pseudized with 0 coefficients

     PseudoPot. # 3 for  N read from file:
     ./pseudo/N.pbe.theos.UPF
     MD5 check sum: 1fde47ee573fe9ed3106b9b4217eb757
     Pseudo is Ultrasoft + core correction, Zval =  5.0
     Generated using "atomic" code by A. Dal Corso  v.5.1
     Using radial grid of 1085 points,  4 beta functions with:
                l(1) =   0
                l(2) =   0
                l(3) =   1
                l(4) =   1
     Q(r) pseudized with 0 coefficients

     atomic species   valence    mass     pseudopotential
        B              3.00    10.81100      B( 1.00)
        C              4.00    12.01070      C( 1.00)
        N              5.00    14.00670      N( 1.00)

     Starting magnetic structure
     atomic species   magnetization
        B            0.400
        C            0.000
        N            0.000

      6 Sym. Ops. (no inversion) found ( 4 have fractional translation)

                                    s                        frac. trans.

      isym =  1     identity

 cryst.   s( 1) = (     1          0          0      )
                  (     0          1          0      )
                  (     0          0          1      )

 cart.    s( 1) = (  1.0000000  0.0000000  0.0000000 )
                  (  0.0000000  1.0000000  0.0000000 )
                  (  0.0000000  0.0000000  1.0000000 )

      isym =  2     120 deg rotation - cryst. axis [0,0,1]

 cryst.   s( 2) = (     0          1          0      )    f =( -0.2000000 )
                  (    -1         -1          0      )       ( -0.2000000 )
                  (     0          0          1      )       (  0.0000000 )

 cart.    s( 2) = ( -0.5000000 -0.8660254  0.0000000 )    f =( -0.1000000 )
                  (  0.8660254 -0.5000000  0.0000000 )       ( -0.1732051 )
                  (  0.0000000  0.0000000  1.0000000 )       (  0.0000000 )

      isym =  3     120 deg rotation - cryst. axis [0,0,-1]

[...]

      isym =  4     inv. 180 deg rotation - cart. axis [1,0,0]

 cryst.   s( 4) = (    -1          0          0      )
                  (     1          1          0      )
                  (     0          0          1      )

 cart.    s( 4) = ( -1.0000000  0.0000000  0.0000000 )
                  (  0.0000000  1.0000000  0.0000000 )
                  (  0.0000000  0.0000000  1.0000000 )

      isym =  5     inv. 180 deg rotation - cryst. axis [0,1,0]

[...]

      isym =  6     inv. 180 deg rotation - cryst. axis [1,1,0]

 cryst.   s( 6) = (     0         -1          0      )    f =( -0.2000000 )
                  (    -1          0          0      )       ( -0.2000000 )
                  (     0          0          1      )       (  0.0000000 )

 cart.    s( 6) = (  0.5000000 -0.8660254  0.0000000 )    f =( -0.1000000 )
                  ( -0.8660254 -0.5000000  0.0000000 )       ( -0.1732051 )
                  (  0.0000000  0.0000000  1.0000000 )       (  0.0000000 )

   Cartesian axes

     site n.     atom                  positions (alat units)
         1           N   tau(   1) = (   0.1000000   0.0577350   0.7970350  )
         2           B   tau(   2) = (  -0.1000000   0.2886751   0.7970350  )
         3           N   tau(   3) = (   0.0000000   0.2309401   0.7970350  )
         4           B   tau(   4) = (  -0.2000000   0.4618802   0.7970350  )
         5           N   tau(   5) = (  -0.1000000   0.4041452   0.7970350  )
         6           B   tau(   6) = (  -0.3000000   0.6350853   0.7970350  )
         7           N   tau(   7) = (  -0.2000000   0.5773503   0.7970350  )
         8           B   tau(   8) = (  -0.4000000   0.8082904   0.7970350  )
         9           N   tau(   9) = (  -0.3000000   0.7505553   0.7970350  )
        10           B   tau(  10) = (   0.2000000   0.1154701   0.7970350  )
        11           N   tau(  11) = (   0.3000000   0.0577350   0.7970350  )
        12           B   tau(  12) = (   0.1000000   0.2886751   0.7970350  )
        13           N   tau(  13) = (   0.2000000   0.2309401   0.7970350  )
        14           B   tau(  14) = (   0.0000000   0.4618802   0.7970350  )
        15           N   tau(  15) = (   0.1000000   0.4041452   0.7970350  )
        16           B   tau(  16) = (  -0.1000000   0.6350853   0.7970350  )
        17           N   tau(  17) = (   0.0000000   0.5773503   0.7970350  )
        18           B   tau(  18) = (  -0.2000000   0.8082904   0.7970350  )
        19           N   tau(  19) = (  -0.1000000   0.7505553   0.7970350  )
        20           B   tau(  20) = (   0.4000000   0.1154701   0.7970350  )
        21           N   tau(  21) = (   0.5000000   0.0577350   0.7970350  )
        22           B   tau(  22) = (   0.3000000   0.2886751   0.7970350  )
        23           N   tau(  23) = (   0.4000000   0.2309401   0.7970350  )
        24           B   tau(  24) = (   0.2000000   0.4618802   0.7970350  )
        25           N   tau(  25) = (   0.3000000   0.4041452   0.7970350  )
        26           B   tau(  26) = (   0.1000000   0.6350853   0.7970350  )
        27           N   tau(  27) = (   0.2000000   0.5773503   0.7970350  )
        28           B   tau(  28) = (   0.0000000   0.8082904   0.7970350  )
        29           N   tau(  29) = (   0.1000000   0.7505553   0.7970350  )
        30           B   tau(  30) = (   0.6000000   0.1154701   0.7970350  )
        31           N   tau(  31) = (   0.7000000   0.0577350   0.7970350  )
        32           B   tau(  32) = (   0.5000000   0.2886751   0.7970350  )
        33           N   tau(  33) = (   0.6000000   0.2309401   0.7970350  )
        34           B   tau(  34) = (   0.4000000   0.4618802   0.7970350  )
        35           N   tau(  35) = (   0.5000000   0.4041452   0.7970350  )
        36           B   tau(  36) = (   0.3000000   0.6350853   0.7970350  )
        37           N   tau(  37) = (   0.4000000   0.5773503   0.7970350  )
        38           B   tau(  38) = (   0.2000000   0.8082904   0.7970350  )
        39           N   tau(  39) = (   0.3000000   0.7505553   0.7970350  )
        40           B   tau(  40) = (   0.8000000   0.1154701   0.7970350  )
        41           N   tau(  41) = (   0.9000000   0.0577350   0.7970350  )
        42           B   tau(  42) = (   0.7000000   0.2886751   0.7970350  )
        43           N   tau(  43) = (   0.8000000   0.2309401   0.7970350  )
        44           B   tau(  44) = (   0.6000000   0.4618802   0.7970350  )
        45           N   tau(  45) = (   0.7000000   0.4041452   0.7970350  )
        46           B   tau(  46) = (   0.5000000   0.6350853   0.7970350  )
        47           N   tau(  47) = (   0.6000000   0.5773503   0.7970350  )
        48           B   tau(  48) = (   0.4000000   0.8082904   0.7970350  )
        49           N   tau(  49) = (   0.5000000   0.7505553   0.7970350  )
        50           C   tau(  50) = (   0.0000000   0.1154701   0.7970350  )

   Crystallographic axes

     site n.     atom                  positions (cryst. coord.)
         1           N   tau(   1) = (  0.1333333  0.0666667  0.7970350  )
         2           B   tau(   2) = (  0.0666667  0.3333333  0.7970350  )
         3           N   tau(   3) = (  0.1333333  0.2666667  0.7970350  )
         4           B   tau(   4) = (  0.0666667  0.5333333  0.7970350  )
         5           N   tau(   5) = (  0.1333333  0.4666667  0.7970350  )
         6           B   tau(   6) = (  0.0666667  0.7333333  0.7970350  )
         7           N   tau(   7) = (  0.1333333  0.6666667  0.7970350  )
         8           B   tau(   8) = (  0.0666667  0.9333333  0.7970350  )
         9           N   tau(   9) = (  0.1333333  0.8666667  0.7970350  )
        10           B   tau(  10) = (  0.2666667  0.1333333  0.7970350  )
        11           N   tau(  11) = (  0.3333333  0.0666667  0.7970350  )
        12           B   tau(  12) = (  0.2666667  0.3333333  0.7970350  )
        13           N   tau(  13) = (  0.3333333  0.2666667  0.7970350  )
        14           B   tau(  14) = (  0.2666667  0.5333333  0.7970350  )
        15           N   tau(  15) = (  0.3333333  0.4666667  0.7970350  )
        16           B   tau(  16) = (  0.2666667  0.7333333  0.7970350  )
        17           N   tau(  17) = (  0.3333333  0.6666667  0.7970350  )
[...]
     atom    3 type  3   force =    -0.00000000    0.00473144   -0.00000058
     atom    4 type  1   force =    -0.00189488    0.00042817    0.00003926
     atom    5 type  3   force =     0.00005776    0.00045052   -0.00000085
     atom    6 type  1   force =    -0.00057664   -0.00185510    0.00003926
     atom    7 type  3   force =     0.00010847    0.00006262   -0.00000099
     atom    8 type  1   force =    -0.00098743   -0.00728686    0.00003898
     atom    9 type  3   force =     0.00041904   -0.00017524   -0.00000085
     atom   10 type  1   force =     0.00581689    0.00449857    0.00003898
     atom   11 type  3   force =     0.00036128   -0.00027528   -0.00000085
     atom   12 type  1   force =     0.00680432    0.00278829    0.00003898
     atom   13 type  3   force =     0.00026594    0.00015354   -0.00000081
     atom   14 type  1   force =    -0.00000000    0.00054343    0.00003964
     atom   15 type  3   force =    -0.00005776    0.00045052   -0.00000085
     atom   16 type  1   force =    -0.00034408   -0.00019865    0.00003957
     atom   17 type  3   force =     0.00000000    0.00012785   -0.00000094
     atom   18 type  1   force =     0.00047062   -0.00027171    0.00003964
     atom   19 type  3   force =     0.00011073   -0.00006393   -0.00000094
     atom   20 type  1   force =     0.00131824    0.00142693    0.00003926
     atom   21 type  3   force =     0.00000000   -0.00012524   -0.00000099
     atom   22 type  1   force =     0.00248499    0.00143471    0.00003891
     atom   23 type  3   force =     0.00006640   -0.00003395   -0.00000076
     atom   24 type  1   force =     0.00189488    0.00042817    0.00003926
     atom   25 type  3   force =     0.00000380    0.00007448   -0.00000076
     atom   26 type  1   force =     0.00034408   -0.00019865    0.00003957
     atom   27 type  3   force =    -0.00010847    0.00006262   -0.00000099
     atom   28 type  1   force =     0.00000000    0.00039731    0.00003957
     atom   29 type  3   force =    -0.00011073   -0.00006393   -0.00000094
     atom   30 type  1   force =    -0.00131824    0.00142693    0.00003926
     atom   31 type  3   force =    -0.00036128   -0.00027528   -0.00000085
     atom   32 type  1   force =     0.00000000    0.00048700    0.00003905
     atom   33 type  3   force =    -0.00006640   -0.00003395   -0.00000076
     atom   34 type  1   force =     0.00042175   -0.00024350    0.00003905
     atom   35 type  3   force =     0.00000000    0.00000000   -0.00000074
     atom   36 type  1   force =     0.00057664   -0.00185510    0.00003926
     atom   37 type  3   force =    -0.00006260   -0.00004053   -0.00000076
     atom   38 type  1   force =    -0.00047062   -0.00027171    0.00003964
     atom   39 type  3   force =    -0.00041904   -0.00017524   -0.00000085
     atom   40 type  1   force =    -0.00581689    0.00449857    0.00003898
     atom   41 type  3   force =    -0.00409755   -0.00236572   -0.00000058
     atom   42 type  1   force =    -0.00248499    0.00143471    0.00003891
     atom   43 type  3   force =    -0.00026594    0.00015354   -0.00000081
     atom   44 type  1   force =    -0.00042175   -0.00024350    0.00003905
     atom   45 type  3   force =    -0.00000380    0.00007448   -0.00000076
     atom   46 type  1   force =     0.00000000   -0.00286942    0.00003891
     atom   47 type  3   force =     0.00006260   -0.00004053   -0.00000076
     atom   48 type  1   force =     0.00098743   -0.00728686    0.00003898
     atom   49 type  3   force =     0.00000000   -0.00030708   -0.00000081
     atom   50 type  2   force =    -0.00000000   -0.00000000    0.00000785
     The Hubbard contrib.    to forces
     atom    1 type  3   force =     0.00000000    0.00000000    0.00000000
     atom    2 type  1   force =     0.00000000    0.00000000    0.00000000
     atom    3 type  3   force =     0.00000000    0.00000000    0.00000000
     atom    4 type  1   force =     0.00000000    0.00000000    0.00000000
     atom    5 type  3   force =     0.00000000    0.00000000    0.00000000
     atom    6 type  1   force =     0.00000000    0.00000000    0.00000000
     atom    7 type  3   force =     0.00000000    0.00000000    0.00000000
     atom    8 type  1   force =     0.00000000    0.00000000    0.00000000
     atom    9 type  3   force =     0.00000000    0.00000000    0.00000000
     atom   10 type  1   force =     0.00000000    0.00000000    0.00000000
     atom   11 type  3   force =     0.00000000    0.00000000    0.00000000
     atom   12 type  1   force =     0.00000000    0.00000000    0.00000000
     atom   13 type  3   force =     0.00000000    0.00000000    0.00000000
     atom   14 type  1   force =     0.00000000    0.00000000    0.00000000
     atom   15 type  3   force =     0.00000000    0.00000000    0.00000000
     atom   16 type  1   force =     0.00000000    0.00000000    0.00000000
     atom   17 type  3   force =     0.00000000    0.00000000    0.00000000
     atom   18 type  1   force =     0.00000000    0.00000000    0.00000000
     atom   19 type  3   force =     0.00000000    0.00000000    0.00000000
     atom   20 type  1   force =     0.00000000    0.00000000    0.00000000
     atom   21 type  3   force =     0.00000000    0.00000000    0.00000000
     atom   22 type  1   force =     0.00000000    0.00000000    0.00000000
     atom   23 type  3   force =     0.00000000    0.00000000    0.00000000
     atom   24 type  1   force =     0.00000000    0.00000000    0.00000000
     atom   25 type  3   force =     0.00000000    0.00000000    0.00000000
     atom   26 type  1   force =     0.00000000    0.00000000    0.00000000
     atom   27 type  3   force =     0.00000000    0.00000000    0.00000000
     atom   28 type  1   force =     0.00000000    0.00000000    0.00000000
     atom   29 type  3   force =     0.00000000    0.00000000    0.00000000
     atom   30 type  1   force =     0.00000000    0.00000000    0.00000000
     atom   31 type  3   force =     0.00000000    0.00000000    0.00000000
     atom   32 type  1   force =     0.00000000    0.00000000    0.00000000
     atom   33 type  3   force =     0.00000000    0.00000000    0.00000000
     atom   34 type  1   force =     0.00000000    0.00000000    0.00000000
     atom   35 type  3   force =     0.00000000    0.00000000    0.00000000
     atom   36 type  1   force =     0.00000000    0.00000000    0.00000000
     atom   37 type  3   force =     0.00000000    0.00000000    0.00000000
     atom   38 type  1   force =     0.00000000    0.00000000    0.00000000
     atom   39 type  3   force =     0.00000000    0.00000000    0.00000000
     atom   40 type  1   force =     0.00000000    0.00000000    0.00000000
     atom   41 type  3   force =     0.00000000    0.00000000    0.00000000
     atom   42 type  1   force =     0.00000000    0.00000000    0.00000000
     atom   43 type  3   force =     0.00000000    0.00000000    0.00000000
     atom   44 type  1   force =     0.00000000    0.00000000    0.00000000
     atom   45 type  3   force =     0.00000000    0.00000000    0.00000000
     atom   46 type  1   force =     0.00000000    0.00000000    0.00000000
     atom   47 type  3   force =     0.00000000    0.00000000    0.00000000
     atom   48 type  1   force =     0.00000000    0.00000000    0.00000000
     atom   49 type  3   force =     0.00000000    0.00000000    0.00000000
     atom   50 type  2   force =     0.00000000    0.00000000    0.00000000
     The SCF correction term to forces
     atom    1 type  3   force =    -0.00000040    0.00000023   -0.00000001
     atom    2 type  1   force =     0.00000037   -0.00000024    0.00000000
     atom    3 type  3   force =    -0.00000000   -0.00000046   -0.00000001
     atom    4 type  1   force =     0.00000007   -0.00000015    0.00000000
     atom    5 type  3   force =     0.00000025   -0.00000066    0.00000001
     atom    6 type  1   force =    -0.00000009    0.00000014    0.00000000
     atom    7 type  3   force =     0.00000008    0.00000005   -0.00000000
     atom    8 type  1   force =    -0.00000002    0.00000044    0.00000000
     atom    9 type  3   force =    -0.00000044    0.00000054    0.00000001
     atom   10 type  1   force =    -0.00000039   -0.00000020    0.00000000
     atom   11 type  3   force =    -0.00000069    0.00000011    0.00000001
     atom   12 type  1   force =    -0.00000037   -0.00000024    0.00000000
     atom   13 type  3   force =    -0.00000046   -0.00000026    0.00000001
     atom   14 type  1   force =     0.00000000   -0.00000022    0.00000000
     atom   15 type  3   force =    -0.00000025   -0.00000066    0.00000001
     atom   16 type  1   force =    -0.00000003   -0.00000002   -0.00000000
     atom   17 type  3   force =     0.00000000   -0.00000038   -0.00000000
     atom   18 type  1   force =    -0.00000019    0.00000011    0.00000000
     atom   19 type  3   force =    -0.00000033    0.00000019   -0.00000000
     atom   20 type  1   force =    -0.00000017    0.00000001    0.00000000
     atom   21 type  3   force =     0.00000000   -0.00000010   -0.00000000
     atom   22 type  1   force =    -0.00000013   -0.00000008   -0.00000000
     atom   23 type  3   force =    -0.00000017    0.00000000   -0.00000000
     atom   24 type  1   force =    -0.00000007   -0.00000015    0.00000000
     atom   25 type  3   force =    -0.00000008   -0.00000015   -0.00000000
     atom   26 type  1   force =     0.00000003   -0.00000002   -0.00000000
     atom   27 type  3   force =    -0.00000008    0.00000005   -0.00000000
     atom   28 type  1   force =     0.00000000    0.00000004   -0.00000000
     atom   29 type  3   force =     0.00000033    0.00000019   -0.00000000
     atom   30 type  1   force =     0.00000017    0.00000001    0.00000000
     atom   31 type  3   force =     0.00000069    0.00000011    0.00000001
     atom   32 type  1   force =    -0.00000000    0.00000009   -0.00000000
     atom   33 type  3   force =     0.00000017    0.00000000   -0.00000000
     atom   34 type  1   force =     0.00000008   -0.00000005   -0.00000000
     atom   35 type  3   force =     0.00000000    0.00000000   -0.00000000
     atom   36 type  1   force =     0.00000009    0.00000014    0.00000000
     atom   37 type  3   force =     0.00000009    0.00000014   -0.00000000
     atom   38 type  1   force =     0.00000019    0.00000011    0.00000000
     atom   39 type  3   force =     0.00000044    0.00000054    0.00000001
     atom   40 type  1   force =     0.00000039   -0.00000020    0.00000000
     atom   41 type  3   force =     0.00000040    0.00000023   -0.00000001
     atom   42 type  1   force =     0.00000013   -0.00000008   -0.00000000
     atom   43 type  3   force =     0.00000046   -0.00000026    0.00000001
     atom   44 type  1   force =    -0.00000008   -0.00000005   -0.00000000
     atom   45 type  3   force =     0.00000008   -0.00000015   -0.00000000
     atom   46 type  1   force =     0.00000000    0.00000015   -0.00000000
     atom   47 type  3   force =    -0.00000009    0.00000014   -0.00000000
     atom   48 type  1   force =     0.00000002    0.00000044    0.00000000
     atom   49 type  3   force =     0.00000000    0.00000053    0.00000001
     atom   50 type  2   force =    -0.00000000    0.00000000   -0.00000001

     Total force =     0.003904     Total SCF correction =     0.000003

     Computing stress (Cartesian axis) and pressure

     negative rho (up, down):  4.989E-04 4.989E-04
          total   stress  (Ry/bohr**3)                   (kbar)     P=   -8.54
  -0.00007347   0.00000000   0.00000000        -10.81      0.00      0.00
   0.00000000  -0.00007347   0.00000000          0.00    -10.81      0.00
   0.00000000   0.00000000  -0.00002725          0.00      0.00     -4.01

     kinetic stress (kbar)   3215.38     -0.00      0.00
                               -0.00   3215.38     -0.00
                                0.00     -0.00   3621.25

     local   stress (kbar) -43045.62     -0.00     -0.00
                               -0.00 -43045.62     -0.00
                               -0.00     -0.00  41396.07

     nonloc. stress (kbar)   1103.58     -0.00      0.00
                               -0.00   1103.58      0.00
                                0.00      0.00   1029.88

     hartree stress (kbar)  19660.02      0.00     -0.00
                                0.00  19660.02     -0.00
                               -0.00     -0.00 -18983.10

     exc-cor stress (kbar)   -441.08      0.00      0.00
                                0.00   -441.08      0.00
                                0.00      0.00   -472.34

     corecor stress (kbar)   -346.19     -0.00      0.00
                               -0.00   -346.19      0.00
                                0.00      0.00   -335.46

     ewald   stress (kbar)  19843.12      0.00      0.00
                                0.00  19843.12      0.00
                                0.00      0.00 -26260.31

     hubbard stress (kbar)      0.00      0.00      0.00
                                0.00      0.00      0.00
                                0.00      0.00      0.00

     london  stress (kbar)      0.00      0.00      0.00
                                0.00      0.00      0.00
                                0.00      0.00      0.00

     XDM     stress (kbar)      0.00      0.00      0.00
                                0.00      0.00      0.00
                                0.00      0.00      0.00

     dft-nl  stress (kbar)      0.00      0.00      0.00
                                0.00      0.00      0.00
                                0.00      0.00      0.00

     TS-vdW  stress (kbar)      0.00      0.00      0.00
                                0.00      0.00      0.00
                                0.00      0.00      0.00

     bfgs converged in   7 scf cycles and   6 bfgs steps
     (criteria: energy <  1.0E-04 Ry, force <  1.0E-03 Ry/Bohr)

     End of BFGS Geometry Optimization

     Final energy   =    -802.6312595278 Ry
Begin final coordinates

ATOMIC_POSITIONS (angstrom)
N        1.191319721   0.760936372   9.999965686
B       -1.269477235   3.610151802  10.000018291
N        0.000000000   2.824362657   9.999965686
B       -2.509563182   5.791149374  10.000021054
N       -1.247508898   5.049417763   9.999985106
B       -3.767399652   7.969786047  10.000021054
N       -2.510855774   7.242827544   9.999983932
B       -5.036155981  10.134230766  10.000018291
N       -3.778730928   9.433622924   9.999985106
B        2.506571700   1.467441335  10.000018291
N        3.742028417   0.728783216   9.999985106
B        1.269477235   3.610151802  10.000018291
N        2.509538335   2.897627767   9.999984013
B        0.000000000   5.791161690  10.000022055
N        1.247508898   5.049417763   9.999985106
B       -1.255816331   7.967424905  10.000021013
N        0.000000000   7.238152346   9.999984109
B       -2.512607394  10.143125357  10.000022055
N       -1.259476728   9.419630029   9.999984109
B        5.015413977   1.450888482  10.000021054
N        6.273250447   0.726168814   9.999983932
B        3.775725319   3.628661163  10.000020844
N        5.017569519   2.896976585   9.999983978
B        2.509563183   5.791149374  10.000021054
N        3.762989987   5.069972076   9.999983978
B        1.255816331   7.967424905  10.000021013
N        2.510855774   7.242827544   9.999983932
B        0.000000000  10.142562595  10.000021013
N        1.259476728   9.419630029   9.999984109
B        7.531086916   1.450888482  10.000021054
N        8.804472476   0.728783216   9.999985106
B        6.273250447   3.623496672  10.000020158
N        7.528931374   2.896976585   9.999983978
B        5.020015303   5.794163615  10.000020158
N        6.273250447   5.070607968   9.999983797
B        3.767399652   7.969786047  10.000021054
N        5.018670915   7.244875241   9.999983978
B        2.512607395  10.143125357  10.000022055
N        3.778730928   9.433622924   9.999985106
B       10.039929193   1.467441335  10.000018291
N       11.355181172   0.760936372   9.999965686
B        8.770775574   3.628661163  10.000020844
N       10.036962558   2.897627767   9.999984013
B        7.526485591   5.794163615  10.000020158
N        8.783510907   5.069972076   9.999983978
B        6.273250447   7.954501577  10.000020844
N        7.527829979   7.244875241   9.999983978
B        5.036155982  10.134230766  10.000018291
N        6.273250447   9.416568369   9.999984013
C       -0.000000000   1.448745134   9.999960199
End final coordinates

     Writing output data file aiida.save

     General routines

     Parallel routines

     PAW routines

   This run was terminated on:  20:34:28  29Feb2020

   JOB DONE.