     Program PWSCF v.6.1 starts on 29Feb2020 at 20:26: 9

     Current dimensions of program PWSCF are:
     Max number of different atomic species (ntypx) = 10
     Max number of k-points (npk) =  40000
     Max angular momentum in pseudopotentials (lmaxx) =  3
               file B.pbe-n-kjpaw_psl.0.1.UPF: wavefunction(s)  2P renormalized
               file C.pbe-n-kjpaw_psl.1.0.0.UPF: wavefunction(s)  2S 2P renormalized

     Subspace diagonalization in iterative solution of the eigenvalue problem:
     a serial algorithm will be used

     bravais-lattice index     =            0
     lattice parameter (alat)  =      37.9351  a.u.
     unit-cell volume          =   47277.5597 (a.u.)^3
     number of atoms/cell      =          128
     number of atomic types    =            3
     number of electrons       =       512.00
     number of Kohn-Sham states=          307
     kinetic-energy cutoff     =      55.0000  Ry
     charge density cutoff     =     440.0000  Ry
     convergence threshold     =      1.0E-09
     mixing beta               =       0.3000
     number of iterations used =            8  plain     mixing
     Exchange-correlation      = PBE ( 1  4  3  4 0 0)
     nstep                     =          200

     celldm(1)=  37.935121  celldm(2)=   0.000000  celldm(3)=   0.000000
     celldm(4)=   0.000000  celldm(5)=   0.000000  celldm(6)=   0.000000

     crystal axes: (cart. coord. in units of alat)
               a(1) = (   1.000000   0.000000   0.000000 )
               a(2) = (  -0.500000   0.866025   0.000000 )
               a(3) = (   0.000000   0.000000   1.000000 )

     reciprocal axes: (cart. coord. in units 2 pi/alat)
               b(1) = (  1.000000  0.577350  0.000000 )
               b(2) = (  0.000000  1.154701  0.000000 )
               b(3) = (  0.000000  0.000000  1.000000 )

     PseudoPot. # 1 for  B read from file:
     ./pseudo/B.pbe-n-kjpaw_psl.0.1.UPF
     MD5 check sum: b4345a612e0782cca08559f453f3313f
     Pseudo is Projector augmented-wave + core cor, Zval =  3.0
     Generated using "atomic" code by A. Dal Corso  v.5.0.99 svn rev. 10869
     Shape of augmentation charge: BESSEL
     Using radial grid of 1059 points,  4 beta functions with:
                l(1) =   0
                l(2) =   0
                l(3) =   1
                l(4) =   1
     Q(r) pseudized with 0 coefficients

     PseudoPot. # 2 for  C read from file:
     ./pseudo/C.pbe-n-kjpaw_psl.1.0.0.UPF
     MD5 check sum: 5d2aebdfa2cae82b50a7e79e9516da0f
     Pseudo is Projector augmented-wave + core cor, Zval =  4.0
     Generated using "atomic" code by A. Dal Corso  v.5.1
     Shape of augmentation charge: PSQ
     Using radial grid of 1073 points,  4 beta functions with:
                l(1) =   0
                l(2) =   0
                l(3) =   1
                l(4) =   1
     Q(r) pseudized with 0 coefficients

     PseudoPot. # 3 for  N read from file:
     ./pseudo/N.pbe.theos.UPF
     MD5 check sum: 1fde47ee573fe9ed3106b9b4217eb757
     Pseudo is Ultrasoft + core correction, Zval =  5.0
     Generated using "atomic" code by A. Dal Corso  v.5.1
     Using radial grid of 1085 points,  4 beta functions with:
                l(1) =   0
                l(2) =   0
                l(3) =   1
                l(4) =   1
     Q(r) pseudized with 0 coefficients

     atomic species   valence    mass     pseudopotential
        B              3.00    10.81100      B( 1.00)
        C              4.00    12.01070      C( 1.00)
        N              5.00    14.00670      N( 1.00)

     Starting magnetic structure
     atomic species   magnetization
        B            0.400
        C            0.000
        N            0.000

      6 Sym. Ops. (no inversion) found ( 4 have fractional translation)

                                    s                        frac. trans.

      isym =  1     identity

 cryst.   s( 1) = (     1          0          0      )
                  (     0          1          0      )
                  (     0          0          1      )

 cart.    s( 1) = (  1.0000000  0.0000000  0.0000000 )
                  (  0.0000000  1.0000000  0.0000000 )
                  (  0.0000000  0.0000000  1.0000000 )

      isym =  2     120 deg rotation - cryst. axis [0,0,1]

 cryst.   s( 2) = (     0          1          0      )    f =( -0.1250000 )
                  (    -1         -1          0      )       ( -0.1250000 )
                  (     0          0          1      )       (  0.0000000 )

 cart.    s( 2) = ( -0.5000000 -0.8660254  0.0000000 )    f =( -0.0625000 )
                  (  0.8660254 -0.5000000  0.0000000 )       ( -0.1082532 )
                  (  0.0000000  0.0000000  1.0000000 )       (  0.0000000 )

      isym =  3     120 deg rotation - cryst. axis [0,0,-1]

[...]

      isym =  4     inv. 180 deg rotation - cart. axis [1,0,0]

 cryst.   s( 4) = (    -1          0          0      )
                  (     1          1          0      )
                  (     0          0          1      )

 cart.    s( 4) = ( -1.0000000  0.0000000  0.0000000 )
                  (  0.0000000  1.0000000  0.0000000 )
                  (  0.0000000  0.0000000  1.0000000 )

      isym =  5     inv. 180 deg rotation - cryst. axis [0,1,0]

[...]

      isym =  6     inv. 180 deg rotation - cryst. axis [1,1,0]

 cryst.   s( 6) = (     0         -1          0      )    f =( -0.1250000 )
                  (    -1          0          0      )       ( -0.1250000 )
                  (     0          0          1      )       (  0.0000000 )

 cart.    s( 6) = (  0.5000000 -0.8660254  0.0000000 )    f =( -0.0625000 )
                  ( -0.8660254 -0.5000000  0.0000000 )       ( -0.1082532 )
                  (  0.0000000  0.0000000  1.0000000 )       (  0.0000000 )

   Cartesian axes

     site n.     atom                  positions (alat units)
         1           N   tau(   1) = (   0.0625000   0.0360844   0.4981469  )
         2           B   tau(   2) = (  -0.0625000   0.1804220   0.4981469  )
         3           N   tau(   3) = (   0.0000000   0.1443376   0.4981469  )
         4           B   tau(   4) = (  -0.1250000   0.2886751   0.4981469  )
         5           N   tau(   5) = (  -0.0625000   0.2525907   0.4981469  )
         6           B   tau(   6) = (  -0.1875000   0.3969283   0.4981469  )
         7           N   tau(   7) = (  -0.1250000   0.3608439   0.4981469  )
         8           B   tau(   8) = (  -0.2500000   0.5051815   0.4981469  )
         9           N   tau(   9) = (  -0.1875000   0.4690971   0.4981469  )
        10           B   tau(  10) = (  -0.3125000   0.6134347   0.4981469  )
        11           N   tau(  11) = (  -0.2500000   0.5773503   0.4981469  )
        12           B   tau(  12) = (  -0.3750000   0.7216878   0.4981469  )
        13           N   tau(  13) = (  -0.3125000   0.6856034   0.4981469  )
        14           B   tau(  14) = (  -0.4375000   0.8299410   0.4981469  )
        15           N   tau(  15) = (  -0.3750000   0.7938566   0.4981469  )
        16           B   tau(  16) = (   0.1250000   0.0721688   0.4981469  )
        17           N   tau(  17) = (   0.1875000   0.0360844   0.4981469  )
        18           B   tau(  18) = (   0.0625000   0.1804220   0.4981469  )
        19           N   tau(  19) = (   0.1250000   0.1443376   0.4981469  )
        20           B   tau(  20) = (   0.0000000   0.2886751   0.4981469  )
        21           N   tau(  21) = (   0.0625000   0.2525907   0.4981469  )
        22           B   tau(  22) = (  -0.0625000   0.3969283   0.4981469  )
        23           N   tau(  23) = (   0.0000000   0.3608439   0.4981469  )
        24           B   tau(  24) = (  -0.1250000   0.5051815   0.4981469  )
        25           N   tau(  25) = (  -0.0625000   0.4690971   0.4981469  )
        26           B   tau(  26) = (  -0.1875000   0.6134347   0.4981469  )
        27           N   tau(  27) = (  -0.1250000   0.5773503   0.4981469  )
        28           B   tau(  28) = (  -0.2500000   0.7216878   0.4981469  )
        29           N   tau(  29) = (  -0.1875000   0.6856034   0.4981469  )
        30           B   tau(  30) = (  -0.3125000   0.8299410   0.4981469  )
        31           N   tau(  31) = (  -0.2500000   0.7938566   0.4981469  )
        32           B   tau(  32) = (   0.2500000   0.0721688   0.4981469  )
        33           N   tau(  33) = (   0.3125000   0.0360844   0.4981469  )
        34           B   tau(  34) = (   0.1875000   0.1804220   0.4981469  )
        35           N   tau(  35) = (   0.2500000   0.1443376   0.4981469  )
        36           B   tau(  36) = (   0.1250000   0.2886751   0.4981469  )
        37           N   tau(  37) = (   0.1875000   0.2525907   0.4981469  )
        38           B   tau(  38) = (   0.0625000   0.3969283   0.4981469  )
        39           N   tau(  39) = (   0.1250000   0.3608439   0.4981469  )
        40           B   tau(  40) = (   0.0000000   0.5051815   0.4981469  )
        41           N   tau(  41) = (   0.0625000   0.4690971   0.4981469  )
        42           B   tau(  42) = (  -0.0625000   0.6134347   0.4981469  )
        43           N   tau(  43) = (   0.0000000   0.5773503   0.4981469  )
        44           B   tau(  44) = (  -0.1250000   0.7216878   0.4981469  )
        45           N   tau(  45) = (  -0.0625000   0.6856034   0.4981469  )
        46           B   tau(  46) = (  -0.1875000   0.8299410   0.4981469  )
        47           N   tau(  47) = (  -0.1250000   0.7938566   0.4981469  )
        48           B   tau(  48) = (   0.3750000   0.0721688   0.4981469  )
        49           N   tau(  49) = (   0.4375000   0.0360844   0.4981469  )
        50           B   tau(  50) = (   0.3125000   0.1804220   0.4981469  )
        51           N   tau(  51) = (   0.3750000   0.1443376   0.4981469  )
        52           B   tau(  52) = (   0.2500000   0.2886751   0.4981469  )
        53           N   tau(  53) = (   0.3125000   0.2525907   0.4981469  )
        54           B   tau(  54) = (   0.1875000   0.3969283   0.4981469  )
        55           N   tau(  55) = (   0.2500000   0.3608439   0.4981469  )
        56           B   tau(  56) = (   0.1250000   0.5051815   0.4981469  )
        57           N   tau(  57) = (   0.1875000   0.4690971   0.4981469  )
        58           B   tau(  58) = (   0.0625000   0.6134347   0.4981469  )
        59           N   tau(  59) = (   0.1250000   0.5773503   0.4981469  )
        60           B   tau(  60) = (   0.0000000   0.7216878   0.4981469  )
[...]
       114           B   tau( 114) = (   0.8125000   0.1804220   0.4981469  )
       115           N   tau( 115) = (   0.8750000   0.1443376   0.4981469  )
       116           B   tau( 116) = (   0.7500000   0.2886751   0.4981469  )
       117           N   tau( 117) = (   0.8125000   0.2525907   0.4981469  )
       118           B   tau( 118) = (   0.6875000   0.3969283   0.4981469  )
       119           N   tau( 119) = (   0.7500000   0.3608439   0.4981469  )
       120           B   tau( 120) = (   0.6250000   0.5051815   0.4981469  )
       121           N   tau( 121) = (   0.6875000   0.4690971   0.4981469  )
[...]
     atom   19 type  3   force =     0.00000000    0.00000000    0.00000000
     atom   20 type  1   force =     0.00000000    0.00000000    0.00000000
     atom   21 type  3   force =     0.00000000    0.00000000    0.00000000
     atom   22 type  1   force =     0.00000000    0.00000000    0.00000000
     atom   23 type  3   force =     0.00000000    0.00000000    0.00000000
     atom   24 type  1   force =     0.00000000    0.00000000    0.00000000
     atom   25 type  3   force =     0.00000000    0.00000000    0.00000000
     atom   26 type  1   force =     0.00000000    0.00000000    0.00000000
     atom   27 type  3   force =     0.00000000    0.00000000    0.00000000
     atom   28 type  1   force =     0.00000000    0.00000000    0.00000000
     atom   29 type  3   force =     0.00000000    0.00000000    0.00000000
     atom   30 type  1   force =     0.00000000    0.00000000    0.00000000
     atom   31 type  3   force =     0.00000000    0.00000000    0.00000000
     atom   32 type  1   force =     0.00000000    0.00000000    0.00000000
     atom   33 type  3   force =     0.00000000    0.00000000    0.00000000
     atom   34 type  1   force =     0.00000000    0.00000000    0.00000000
     atom   35 type  3   force =     0.00000000    0.00000000    0.00000000
     atom   36 type  1   force =     0.00000000    0.00000000    0.00000000
     atom   37 type  3   force =     0.00000000    0.00000000    0.00000000
     atom   38 type  1   force =     0.00000000    0.00000000    0.00000000
     atom   39 type  3   force =     0.00000000    0.00000000    0.00000000
     atom   40 type  1   force =     0.00000000    0.00000000    0.00000000
     atom   41 type  3   force =     0.00000000    0.00000000    0.00000000
     atom   42 type  1   force =     0.00000000    0.00000000    0.00000000
     atom   43 type  3   force =     0.00000000    0.00000000    0.00000000
     atom   44 type  1   force =     0.00000000    0.00000000    0.00000000
     atom   45 type  3   force =     0.00000000    0.00000000    0.00000000
     atom   46 type  1   force =     0.00000000    0.00000000    0.00000000
     atom   47 type  3   force =     0.00000000    0.00000000    0.00000000
     atom   48 type  1   force =     0.00000000    0.00000000    0.00000000
     atom   49 type  3   force =     0.00000000    0.00000000    0.00000000
     atom   50 type  1   force =     0.00000000    0.00000000    0.00000000
     atom   51 type  3   force =     0.00000000    0.00000000    0.00000000
     atom   52 type  1   force =     0.00000000    0.00000000    0.00000000
     atom   53 type  3   force =     0.00000000    0.00000000    0.00000000
     atom   54 type  1   force =     0.00000000    0.00000000    0.00000000
     atom   55 type  3   force =     0.00000000    0.00000000    0.00000000
     atom   56 type  1   force =     0.00000000    0.00000000    0.00000000
     atom   57 type  3   force =     0.00000000    0.00000000    0.00000000
     atom   58 type  1   force =     0.00000000    0.00000000    0.00000000
     atom   59 type  3   force =     0.00000000    0.00000000    0.00000000
     atom   60 type  1   force =     0.00000000    0.00000000    0.00000000
[...]
     atom  114 type  1   force =     0.00000000    0.00000000    0.00000000
     atom  115 type  3   force =     0.00000000    0.00000000    0.00000000
     atom  116 type  1   force =     0.00000000    0.00000000    0.00000000
     atom  117 type  3   force =     0.00000000    0.00000000    0.00000000
     atom  118 type  1   force =     0.00000000    0.00000000    0.00000000
     atom  119 type  3   force =     0.00000000    0.00000000    0.00000000
     atom  120 type  1   force =     0.00000000    0.00000000    0.00000000
     atom  121 type  3   force =     0.00000000    0.00000000    0.00000000
     atom  122 type  1   force =     0.00000000    0.00000000    0.00000000
     atom  123 type  3   force =     0.00000000    0.00000000    0.00000000
     atom  124 type  1   force =     0.00000000    0.00000000    0.00000000
     atom  125 type  3   force =     0.00000000    0.00000000    0.00000000
     atom  126 type  1   force =     0.00000000    0.00000000    0.00000000
     atom  127 type  3   force =     0.00000000    0.00000000    0.00000000
     atom  128 type  2   force =     0.00000000    0.00000000    0.00000000
     The SCF correction term to forces
     atom    1 type  3   force =     0.00000099   -0.00000057    0.00000000
     atom    2 type  1   force =    -0.00000026    0.00000036    0.00000000
     atom    3 type  3   force =     0.00000000    0.00000114    0.00000000
     atom    4 type  1   force =     0.00000005   -0.00000027    0.00000000
     atom    5 type  3   force =    -0.00000020   -0.00000008    0.00000000
     atom    6 type  1   force =    -0.00000006   -0.00000040    0.00000000
     atom    7 type  3   force =    -0.00000007   -0.00000091    0.00000000
     atom    8 type  1   force =    -0.00000027   -0.00000015    0.00000000
     atom    9 type  3   force =    -0.00000002   -0.00000073    0.00000000
     atom   10 type  1   force =    -0.00000038    0.00000015    0.00000000
     atom   11 type  3   force =    -0.00000064    0.00000034    0.00000000
     atom   12 type  1   force =    -0.00000021    0.00000017    0.00000000
     atom   13 type  3   force =    -0.00000083    0.00000039    0.00000000
     atom   14 type  1   force =     0.00000019   -0.00000041    0.00000000
     atom   15 type  3   force =    -0.00000017   -0.00000013    0.00000000
     atom   16 type  1   force =     0.00000044    0.00000004    0.00000000
     atom   17 type  3   force =     0.00000003    0.00000021    0.00000000
     atom   18 type  1   force =     0.00000026    0.00000036    0.00000000
     atom   19 type  3   force =     0.00000051    0.00000029   -0.00000000
     atom   20 type  1   force =    -0.00000000   -0.00000020    0.00000000
     atom   21 type  3   force =     0.00000020   -0.00000008    0.00000000
     atom   22 type  1   force =     0.00000001   -0.00000042    0.00000000
     atom   23 type  3   force =     0.00000000   -0.00000067   -0.00000000
     atom   24 type  1   force =     0.00000011   -0.00000008    0.00000000
     atom   25 type  3   force =     0.00000005   -0.00000016    0.00000000
     atom   26 type  1   force =    -0.00000001    0.00000013    0.00000000
     atom   27 type  3   force =     0.00000057    0.00000033    0.00000000
     atom   28 type  1   force =    -0.00000035    0.00000022    0.00000000
     atom   29 type  3   force =    -0.00000011    0.00000012    0.00000000
     atom   30 type  1   force =    -0.00000018    0.00000010    0.00000000
     atom   31 type  3   force =    -0.00000058    0.00000033   -0.00000000
     atom   32 type  1   force =    -0.00000025    0.00000009    0.00000000
     atom   33 type  3   force =    -0.00000075    0.00000052    0.00000000
     atom   34 type  1   force =    -0.00000005   -0.00000003    0.00000000
     atom   35 type  3   force =    -0.00000056   -0.00000024    0.00000000
     atom   36 type  1   force =    -0.00000005   -0.00000027    0.00000000
     atom   37 type  3   force =    -0.00000049   -0.00000036    0.00000000
     atom   38 type  1   force =    -0.00000001   -0.00000042    0.00000000
     atom   39 type  3   force =     0.00000007   -0.00000091    0.00000000
     atom   40 type  1   force =     0.00000000    0.00000011   -0.00000000
     atom   41 type  3   force =    -0.00000005   -0.00000016    0.00000000
     atom   42 type  1   force =     0.00000020    0.00000012    0.00000000
     atom   43 type  3   force =     0.00000000    0.00000050   -0.00000000
     atom   44 type  1   force =     0.00000009   -0.00000005   -0.00000000
     atom   45 type  3   force =     0.00000044   -0.00000025   -0.00000000
     atom   46 type  1   force =    -0.00000037    0.00000020    0.00000000
     atom   47 type  3   force =    -0.00000016    0.00000003    0.00000000
     atom   48 type  1   force =    -0.00000031    0.00000025    0.00000000
     atom   49 type  3   force =    -0.00000062    0.00000038    0.00000000
     atom   50 type  1   force =    -0.00000011   -0.00000000    0.00000000
     atom   51 type  3   force =    -0.00000073    0.00000043    0.00000000
     atom   52 type  1   force =    -0.00000006   -0.00000009    0.00000000
     atom   53 type  3   force =    -0.00000043   -0.00000025    0.00000000
     atom   54 type  1   force =     0.00000006   -0.00000040    0.00000000
     atom   55 type  3   force =     0.00000001   -0.00000085    0.00000000
     atom   56 type  1   force =    -0.00000011   -0.00000008    0.00000000
     atom   57 type  3   force =     0.00000002   -0.00000073    0.00000000
     atom   58 type  1   force =    -0.00000020    0.00000012    0.00000000
     atom   59 type  3   force =    -0.00000057    0.00000033    0.00000000
     atom   60 type  1   force =    -0.00000000   -0.00000024    0.00000000
[...]
     atom  114 type  1   force =     0.00000005   -0.00000003    0.00000000
     atom  115 type  3   force =    -0.00000051    0.00000029   -0.00000000
     atom  116 type  1   force =     0.00000006   -0.00000009    0.00000000
     atom  117 type  3   force =     0.00000049   -0.00000036    0.00000000
     atom  118 type  1   force =    -0.00000007   -0.00000016   -0.00000000
     atom  119 type  3   force =    -0.00000001   -0.00000085    0.00000000
     atom  120 type  1   force =    -0.00000017    0.00000002   -0.00000000
     atom  121 type  3   force =    -0.00000075   -0.00000043    0.00000000
     atom  122 type  1   force =    -0.00000005    0.00000010    0.00000000
     atom  123 type  3   force =    -0.00000074    0.00000042    0.00000000
     atom  124 type  1   force =     0.00000000    0.00000006    0.00000000
     atom  125 type  3   force =    -0.00000007    0.00000060    0.00000000
     atom  126 type  1   force =    -0.00000019   -0.00000041    0.00000000
     atom  127 type  3   force =    -0.00000000   -0.00000058   -0.00000000
     atom  128 type  2   force =     0.00000000    0.00000000    0.00000000

     Total force =     0.006009     Total SCF correction =     0.000006

     Computing stress (Cartesian axis) and pressure

     negative rho (up, down):  2.431E-03 2.431E-03
          total   stress  (Ry/bohr**3)                   (kbar)     P=   -1.96
  -0.00001656   0.00000000   0.00000000         -2.44      0.00      0.00
   0.00000000  -0.00001656   0.00000000          0.00     -2.44      0.00
   0.00000000   0.00000000  -0.00000680          0.00      0.00     -1.00

     kinetic stress (kbar)   2007.69     -0.00      0.00
                               -0.00   2007.69      0.00
                                0.00      0.00   2249.60

     local   stress (kbar) -46215.14     -0.00      0.00
                               -0.00 -46215.14     -0.00
                                0.00     -0.00  45189.73

     nonloc. stress (kbar)    688.91     -0.00      0.00
                               -0.00    688.91      0.00
                                0.00      0.00    642.06

     hartree stress (kbar)  21897.61      0.00     -0.00
                                0.00  21897.61      0.00
                               -0.00      0.00 -21477.02

     exc-cor stress (kbar)   -276.97      0.00     -0.00
                                0.00   -276.97     -0.00
                               -0.00     -0.00   -296.39

     corecor stress (kbar)   -214.41     -0.00     -0.00
                               -0.00   -214.41      0.00
                               -0.00      0.00   -207.59

     ewald   stress (kbar)  22109.88      0.00      0.00
                                0.00  22109.88      0.00
                                0.00      0.00 -26101.39

     hubbard stress (kbar)      0.00      0.00      0.00
                                0.00      0.00      0.00
                                0.00      0.00      0.00

     london  stress (kbar)      0.00      0.00      0.00
                                0.00      0.00      0.00
                                0.00      0.00      0.00

     XDM     stress (kbar)      0.00      0.00      0.00
                                0.00      0.00      0.00
                                0.00      0.00      0.00

     dft-nl  stress (kbar)      0.00      0.00      0.00
                                0.00      0.00      0.00
                                0.00      0.00      0.00

     TS-vdW  stress (kbar)      0.00      0.00      0.00
                                0.00      0.00      0.00
                                0.00      0.00      0.00

     bfgs converged in   8 scf cycles and   7 bfgs steps
     (criteria: energy <  1.0E-04 Ry, force <  1.0E-03 Ry/Bohr)

     End of BFGS Geometry Optimization

     Final energy   =   -2044.2618134486 Ry
Begin final coordinates

ATOMIC_POSITIONS (angstrom)
N        1.190286937   0.761532650   9.999951786
B       -1.269690569   3.608955616  10.000012891
N        0.000000000   2.823170101   9.999951786
B       -2.508985935   5.788746527  10.000019836
N       -1.246183949   5.043704442   9.999984652
B       -3.764028942   7.966050983  10.000019269
N       -2.505767282   7.233088895   9.999983482
B       -5.019649221  10.140610373  10.000019565
N       -3.763667759   9.413695599   9.999983747
B       -6.275062755  12.315289127  10.000019269
N       -5.021185151  11.591779613   9.999983747
B       -7.533142222  14.490840482  10.000019836
N       -6.280695714  13.771456733   9.999983482
B       -8.801248844  16.653997208  10.000012891
N       -7.546966602  15.956980125   9.999984652
B        2.505642439   1.468224180  10.000012891
N        3.736418061   0.730492437   9.999984652
B        1.269690569   3.608955616  10.000012891
N        2.508798111   2.897200398   9.999983541
B        0.000000000   5.788856375  10.000018883
N        1.246183949   5.043704442   9.999984652
B       -1.254786136   7.965764570  10.000018832
N        0.000000000   7.230728297   9.999983163
B       -2.510069017  10.140609711  10.000019067
N       -1.254486365   9.412023966   9.999983424
B       -3.764859693  12.313970914  10.000019067
N       -2.510402486  11.589324651   9.999983477
B       -5.020689393  14.488500348  10.000018832
N       -3.768042130  13.765630260   9.999983424
B       -6.278554124  16.663631116  10.000018883
N       -5.029856410  15.942695155   9.999983163
B        5.013044427   1.451589994  10.000019836
N        6.262272283   0.726631376   9.999983482
B        3.778352709   3.630178087  10.000020910
N        5.016208493   2.897224909   9.999983889
B        2.508985936   5.788746527  10.000019836
N        3.762524529   5.068669231   9.999983889
B        1.254786136   7.965764570  10.000018832
N        2.505767283   7.233088895   9.999983482
B        0.000000000  10.140781772  10.000018612
N        1.254486365   9.412023966   9.999983424
B       -1.254920373  12.314177587  10.000018651
N        0.000000000  11.588729656   9.999983354
B       -2.509676174  14.487668417  10.000018612
N       -1.255716524  13.763694475   9.999983354
B       -3.765903257  16.661853688  10.000018832
N       -2.513555765  15.938464381   9.999983424
B        7.526166901   1.449836893  10.000019269
N        8.779683323   0.725701792   9.999983747
B        6.278911236   3.624133397  10.000019837
N        7.527021358   2.897638012   9.999983970
B        5.023397118   5.798747641  10.000019837
N        6.272614563   5.070240840   9.999984118
B        3.764028942   7.966050983  10.000019269
N        5.018288720   7.242890405   9.999983970
B        2.510069017  10.140609711  10.000019067
N        3.763667760   9.413695599   9.999983747
B        1.254920374  12.314177587  10.000018651
N        2.510402486  11.589324651   9.999983477
B        0.000000000  14.487763433  10.000018651
[...]
B       16.296048720   3.630178087  10.000020910
N       17.565603318   2.897200398   9.999983541
B       15.051004311   5.798747641  10.000019837
N       16.311876900   5.068669231   9.999983889
B       13.798969902   7.968918149  10.000019923
N       15.056112710   7.242890405   9.999983970
B       12.546120420  10.138917107  10.000019923
N       13.800687649   9.416575863   9.999984045
B       11.292714834  12.308295966  10.000019837
N       12.545933354  11.590648586   9.999983970
B       10.037200715  14.470820829  10.000020910
N       11.290884679  13.765282864   9.999983889
B        8.801248844  16.653997208  10.000012891
N       10.037200715  15.936776207   9.999983541
C        0.000000000   1.448745133   9.999943424
End final coordinates

     Writing output data file aiida.save

     General routines

     Parallel routines

     PAW routines

   This run was terminated on:  21:38:43  29Feb2020

   JOB DONE.