     Program PWSCF v.6.1 starts on 29Feb2020 at 20:25: 9

     Current dimensions of program PWSCF are:
     Max number of different atomic species (ntypx) = 10
     Max number of k-points (npk) =  40000
     Max angular momentum in pseudopotentials (lmaxx) =  3
               file B.pbe-n-kjpaw_psl.0.1.UPF: wavefunction(s)  2P renormalized
               file C.pbe-n-kjpaw_psl.1.0.0.UPF: wavefunction(s)  2S 2P renormalized

     Subspace diagonalization in iterative solution of the eigenvalue problem:
     a serial algorithm will be used

     bravais-lattice index     =            0
     lattice parameter (alat)  =      28.4513  a.u.
     unit-cell volume          =   19945.2205 (a.u.)^3
     number of atoms/cell      =           72
     number of atomic types    =            3
     number of electrons       =       288.00
     number of Kohn-Sham states=          173
     kinetic-energy cutoff     =      55.0000  Ry
     charge density cutoff     =     440.0000  Ry
     convergence threshold     =      1.0E-09
     mixing beta               =       0.3000
     number of iterations used =            8  plain     mixing
     Exchange-correlation      = PBE ( 1  4  3  4 0 0)
     nstep                     =          200

     celldm(1)=  28.451341  celldm(2)=   0.000000  celldm(3)=   0.000000
     celldm(4)=   0.000000  celldm(5)=   0.000000  celldm(6)=   0.000000

     crystal axes: (cart. coord. in units of alat)
               a(1) = (   1.000000   0.000000   0.000000 )
               a(2) = (  -0.500000   0.866025   0.000000 )
               a(3) = (   0.000000   0.000000   1.000000 )

     reciprocal axes: (cart. coord. in units 2 pi/alat)
               b(1) = (  1.000000  0.577350  0.000000 )
               b(2) = (  0.000000  1.154701  0.000000 )
               b(3) = (  0.000000  0.000000  1.000000 )

     PseudoPot. # 1 for  B read from file:
     ./pseudo/B.pbe-n-kjpaw_psl.0.1.UPF
     MD5 check sum: b4345a612e0782cca08559f453f3313f
     Pseudo is Projector augmented-wave + core cor, Zval =  3.0
     Generated using "atomic" code by A. Dal Corso  v.5.0.99 svn rev. 10869
     Shape of augmentation charge: BESSEL
     Using radial grid of 1059 points,  4 beta functions with:
                l(1) =   0
                l(2) =   0
                l(3) =   1
                l(4) =   1
     Q(r) pseudized with 0 coefficients

     PseudoPot. # 2 for  C read from file:
     ./pseudo/C.pbe-n-kjpaw_psl.1.0.0.UPF
     MD5 check sum: 5d2aebdfa2cae82b50a7e79e9516da0f
     Pseudo is Projector augmented-wave + core cor, Zval =  4.0
     Generated using "atomic" code by A. Dal Corso  v.5.1
     Shape of augmentation charge: PSQ
     Using radial grid of 1073 points,  4 beta functions with:
                l(1) =   0
                l(2) =   0
                l(3) =   1
                l(4) =   1
     Q(r) pseudized with 0 coefficients

     PseudoPot. # 3 for  N read from file:
     ./pseudo/N.pbe.theos.UPF
     MD5 check sum: 1fde47ee573fe9ed3106b9b4217eb757
     Pseudo is Ultrasoft + core correction, Zval =  5.0
     Generated using "atomic" code by A. Dal Corso  v.5.1
     Using radial grid of 1085 points,  4 beta functions with:
                l(1) =   0
                l(2) =   0
                l(3) =   1
                l(4) =   1
     Q(r) pseudized with 0 coefficients

     atomic species   valence    mass     pseudopotential
        B              3.00    10.81100      B( 1.00)
        C              4.00    12.01070      C( 1.00)
        N              5.00    14.00670      N( 1.00)

     Starting magnetic structure
     atomic species   magnetization
        B            0.400
        C            0.000
        N            0.000

      6 Sym. Ops. (no inversion) found ( 4 have fractional translation)

                                    s                        frac. trans.

      isym =  1     identity

 cryst.   s( 1) = (     1          0          0      )
                  (     0          1          0      )
                  (     0          0          1      )

 cart.    s( 1) = (  1.0000000  0.0000000  0.0000000 )
                  (  0.0000000  1.0000000  0.0000000 )
                  (  0.0000000  0.0000000  1.0000000 )

      isym =  2     120 deg rotation - cryst. axis [0,0,1]

 cryst.   s( 2) = (     0          1          0      )    f =( -0.1666667 )
                  (    -1         -1          0      )       ( -0.1666667 )
                  (     0          0          1      )       (  0.0000000 )

 cart.    s( 2) = ( -0.5000000 -0.8660254  0.0000000 )    f =( -0.0833333 )
                  (  0.8660254 -0.5000000  0.0000000 )       ( -0.1443376 )
                  (  0.0000000  0.0000000  1.0000000 )       (  0.0000000 )

      isym =  3     120 deg rotation - cryst. axis [0,0,-1]

[...]

      isym =  4     inv. 180 deg rotation - cart. axis [1,0,0]

 cryst.   s( 4) = (    -1          0          0      )
                  (     1          1          0      )
                  (     0          0          1      )

 cart.    s( 4) = ( -1.0000000  0.0000000  0.0000000 )
                  (  0.0000000  1.0000000  0.0000000 )
                  (  0.0000000  0.0000000  1.0000000 )

      isym =  5     inv. 180 deg rotation - cryst. axis [0,1,0]

[...]

      isym =  6     inv. 180 deg rotation - cryst. axis [1,1,0]

 cryst.   s( 6) = (     0         -1          0      )    f =( -0.1666667 )
                  (    -1          0          0      )       ( -0.1666667 )
                  (     0          0          1      )       (  0.0000000 )

 cart.    s( 6) = (  0.5000000 -0.8660254  0.0000000 )    f =( -0.0833333 )
                  ( -0.8660254 -0.5000000  0.0000000 )       ( -0.1443376 )
                  (  0.0000000  0.0000000  1.0000000 )       (  0.0000000 )

   Cartesian axes

     site n.     atom                  positions (alat units)
         1           N   tau(   1) = (   0.0833333   0.0481125   0.6641958  )
         2           B   tau(   2) = (  -0.0833333   0.2405626   0.6641958  )
         3           N   tau(   3) = (   0.0000000   0.1924501   0.6641958  )
         4           B   tau(   4) = (  -0.1666667   0.3849002   0.6641958  )
         5           N   tau(   5) = (  -0.0833333   0.3367877   0.6641958  )
         6           B   tau(   6) = (  -0.2500000   0.5292377   0.6641958  )
         7           N   tau(   7) = (  -0.1666667   0.4811252   0.6641958  )
         8           B   tau(   8) = (  -0.3333333   0.6735753   0.6641958  )
         9           N   tau(   9) = (  -0.2500000   0.6254628   0.6641958  )
        10           B   tau(  10) = (  -0.4166667   0.8179129   0.6641958  )
        11           N   tau(  11) = (  -0.3333333   0.7698004   0.6641958  )
        12           B   tau(  12) = (   0.1666667   0.0962250   0.6641958  )
        13           N   tau(  13) = (   0.2500000   0.0481125   0.6641958  )
        14           B   tau(  14) = (   0.0833333   0.2405626   0.6641958  )
        15           N   tau(  15) = (   0.1666667   0.1924501   0.6641958  )
        16           B   tau(  16) = (   0.0000000   0.3849002   0.6641958  )
        17           N   tau(  17) = (   0.0833333   0.3367877   0.6641958  )
        18           B   tau(  18) = (  -0.0833333   0.5292377   0.6641958  )
        19           N   tau(  19) = (   0.0000000   0.4811252   0.6641958  )
        20           B   tau(  20) = (  -0.1666667   0.6735753   0.6641958  )
        21           N   tau(  21) = (  -0.0833333   0.6254628   0.6641958  )
        22           B   tau(  22) = (  -0.2500000   0.8179129   0.6641958  )
        23           N   tau(  23) = (  -0.1666667   0.7698004   0.6641958  )
        24           B   tau(  24) = (   0.3333333   0.0962250   0.6641958  )
        25           N   tau(  25) = (   0.4166667   0.0481125   0.6641958  )
        26           B   tau(  26) = (   0.2500000   0.2405626   0.6641958  )
        27           N   tau(  27) = (   0.3333333   0.1924501   0.6641958  )
        28           B   tau(  28) = (   0.1666667   0.3849002   0.6641958  )
        29           N   tau(  29) = (   0.2500000   0.3367877   0.6641958  )
        30           B   tau(  30) = (   0.0833333   0.5292377   0.6641958  )
        31           N   tau(  31) = (   0.1666667   0.4811252   0.6641958  )
        32           B   tau(  32) = (   0.0000000   0.6735753   0.6641958  )
        33           N   tau(  33) = (   0.0833333   0.6254628   0.6641958  )
        34           B   tau(  34) = (  -0.0833333   0.8179129   0.6641958  )
        35           N   tau(  35) = (   0.0000000   0.7698004   0.6641958  )
        36           B   tau(  36) = (   0.5000000   0.0962250   0.6641958  )
        37           N   tau(  37) = (   0.5833333   0.0481125   0.6641958  )
        38           B   tau(  38) = (   0.4166667   0.2405626   0.6641958  )
        39           N   tau(  39) = (   0.5000000   0.1924501   0.6641958  )
        40           B   tau(  40) = (   0.3333333   0.3849002   0.6641958  )
        41           N   tau(  41) = (   0.4166667   0.3367877   0.6641958  )
        42           B   tau(  42) = (   0.2500000   0.5292377   0.6641958  )
        43           N   tau(  43) = (   0.3333333   0.4811252   0.6641958  )
        44           B   tau(  44) = (   0.1666667   0.6735753   0.6641958  )
        45           N   tau(  45) = (   0.2500000   0.6254628   0.6641958  )
        46           B   tau(  46) = (   0.0833333   0.8179129   0.6641958  )
        47           N   tau(  47) = (   0.1666667   0.7698004   0.6641958  )
        48           B   tau(  48) = (   0.6666667   0.0962250   0.6641958  )
        49           N   tau(  49) = (   0.7500000   0.0481125   0.6641958  )
        50           B   tau(  50) = (   0.5833333   0.2405626   0.6641958  )
        51           N   tau(  51) = (   0.6666667   0.1924501   0.6641958  )
        52           B   tau(  52) = (   0.5000000   0.3849002   0.6641958  )
        53           N   tau(  53) = (   0.5833333   0.3367877   0.6641958  )
        54           B   tau(  54) = (   0.4166667   0.5292377   0.6641958  )
        55           N   tau(  55) = (   0.5000000   0.4811252   0.6641958  )
        56           B   tau(  56) = (   0.3333333   0.6735753   0.6641958  )
        57           N   tau(  57) = (   0.4166667   0.6254628   0.6641958  )
        58           B   tau(  58) = (   0.2500000   0.8179129   0.6641958  )
        59           N   tau(  59) = (   0.3333333   0.7698004   0.6641958  )
        60           B   tau(  60) = (   0.8333333   0.0962250   0.6641958  )
        61           N   tau(  61) = (   0.9166667   0.0481125   0.6641958  )
        62           B   tau(  62) = (   0.7500000   0.2405626   0.6641958  )
        63           N   tau(  63) = (   0.8333333   0.1924501   0.6641958  )
        64           B   tau(  64) = (   0.6666667   0.3849002   0.6641958  )
        65           N   tau(  65) = (   0.7500000   0.3367877   0.6641958  )
        66           B   tau(  66) = (   0.5833333   0.5292377   0.6641958  )
        67           N   tau(  67) = (   0.6666667   0.4811252   0.6641958  )
        68           B   tau(  68) = (   0.5000000   0.6735753   0.6641958  )
[...]
     atom   11 type  3   force =     0.00000000    0.00000000    0.00000000
     atom   12 type  1   force =     0.00000000    0.00000000    0.00000000
     atom   13 type  3   force =     0.00000000    0.00000000    0.00000000
     atom   14 type  1   force =     0.00000000    0.00000000    0.00000000
     atom   15 type  3   force =     0.00000000    0.00000000    0.00000000
     atom   16 type  1   force =     0.00000000    0.00000000    0.00000000
     atom   17 type  3   force =     0.00000000    0.00000000    0.00000000
     atom   18 type  1   force =     0.00000000    0.00000000    0.00000000
     atom   19 type  3   force =     0.00000000    0.00000000    0.00000000
     atom   20 type  1   force =     0.00000000    0.00000000    0.00000000
     atom   21 type  3   force =     0.00000000    0.00000000    0.00000000
     atom   22 type  1   force =     0.00000000    0.00000000    0.00000000
     atom   23 type  3   force =     0.00000000    0.00000000    0.00000000
     atom   24 type  1   force =     0.00000000    0.00000000    0.00000000
     atom   25 type  3   force =     0.00000000    0.00000000    0.00000000
     atom   26 type  1   force =     0.00000000    0.00000000    0.00000000
     atom   27 type  3   force =     0.00000000    0.00000000    0.00000000
     atom   28 type  1   force =     0.00000000    0.00000000    0.00000000
     atom   29 type  3   force =     0.00000000    0.00000000    0.00000000
     atom   30 type  1   force =     0.00000000    0.00000000    0.00000000
     atom   31 type  3   force =     0.00000000    0.00000000    0.00000000
     atom   32 type  1   force =     0.00000000    0.00000000    0.00000000
     atom   33 type  3   force =     0.00000000    0.00000000    0.00000000
     atom   34 type  1   force =     0.00000000    0.00000000    0.00000000
     atom   35 type  3   force =     0.00000000    0.00000000    0.00000000
     atom   36 type  1   force =     0.00000000    0.00000000    0.00000000
     atom   37 type  3   force =     0.00000000    0.00000000    0.00000000
     atom   38 type  1   force =     0.00000000    0.00000000    0.00000000
     atom   39 type  3   force =     0.00000000    0.00000000    0.00000000
     atom   40 type  1   force =     0.00000000    0.00000000    0.00000000
     atom   41 type  3   force =     0.00000000    0.00000000    0.00000000
     atom   42 type  1   force =     0.00000000    0.00000000    0.00000000
     atom   43 type  3   force =     0.00000000    0.00000000    0.00000000
     atom   44 type  1   force =     0.00000000    0.00000000    0.00000000
     atom   45 type  3   force =     0.00000000    0.00000000    0.00000000
     atom   46 type  1   force =     0.00000000    0.00000000    0.00000000
     atom   47 type  3   force =     0.00000000    0.00000000    0.00000000
     atom   48 type  1   force =     0.00000000    0.00000000    0.00000000
     atom   49 type  3   force =     0.00000000    0.00000000    0.00000000
     atom   50 type  1   force =     0.00000000    0.00000000    0.00000000
     atom   51 type  3   force =     0.00000000    0.00000000    0.00000000
     atom   52 type  1   force =     0.00000000    0.00000000    0.00000000
     atom   53 type  3   force =     0.00000000    0.00000000    0.00000000
     atom   54 type  1   force =     0.00000000    0.00000000    0.00000000
     atom   55 type  3   force =     0.00000000    0.00000000    0.00000000
     atom   56 type  1   force =     0.00000000    0.00000000    0.00000000
     atom   57 type  3   force =     0.00000000    0.00000000    0.00000000
     atom   58 type  1   force =     0.00000000    0.00000000    0.00000000
     atom   59 type  3   force =     0.00000000    0.00000000    0.00000000
     atom   60 type  1   force =     0.00000000    0.00000000    0.00000000
     atom   61 type  3   force =     0.00000000    0.00000000    0.00000000
     atom   62 type  1   force =     0.00000000    0.00000000    0.00000000
     atom   63 type  3   force =     0.00000000    0.00000000    0.00000000
     atom   64 type  1   force =     0.00000000    0.00000000    0.00000000
     atom   65 type  3   force =     0.00000000    0.00000000    0.00000000
     atom   66 type  1   force =     0.00000000    0.00000000    0.00000000
     atom   67 type  3   force =     0.00000000    0.00000000    0.00000000
     atom   68 type  1   force =     0.00000000    0.00000000    0.00000000
     atom   69 type  3   force =     0.00000000    0.00000000    0.00000000
     atom   70 type  1   force =     0.00000000    0.00000000    0.00000000
     atom   71 type  3   force =     0.00000000    0.00000000    0.00000000
     atom   72 type  2   force =     0.00000000    0.00000000    0.00000000
     The SCF correction term to forces
     atom    1 type  3   force =    -0.00000029    0.00000017   -0.00000000
     atom    2 type  1   force =    -0.00000018    0.00000003   -0.00000000
     atom    3 type  3   force =     0.00000000   -0.00000034   -0.00000000
     atom    4 type  1   force =    -0.00000003   -0.00000000   -0.00000000
     atom    5 type  3   force =    -0.00000018    0.00000001    0.00000000
     atom    6 type  1   force =    -0.00000001   -0.00000000    0.00000000
     atom    7 type  3   force =    -0.00000002   -0.00000006   -0.00000000
     atom    8 type  1   force =    -0.00000002   -0.00000003   -0.00000000
     atom    9 type  3   force =    -0.00000006    0.00000001   -0.00000000
     atom   10 type  1   force =    -0.00000006   -0.00000017   -0.00000000
     atom   11 type  3   force =    -0.00000008   -0.00000016    0.00000000
     atom   12 type  1   force =     0.00000012    0.00000014   -0.00000000
     atom   13 type  3   force =     0.00000010    0.00000015    0.00000000
     atom   14 type  1   force =     0.00000018    0.00000003   -0.00000000
     atom   15 type  3   force =     0.00000004    0.00000002    0.00000000
     atom   16 type  1   force =    -0.00000000    0.00000008    0.00000000
     atom   17 type  3   force =     0.00000018    0.00000001    0.00000000
     atom   18 type  1   force =     0.00000000   -0.00000001   -0.00000000
     atom   19 type  3   force =     0.00000000   -0.00000000   -0.00000000
     atom   20 type  1   force =    -0.00000001    0.00000001   -0.00000000
     atom   21 type  3   force =     0.00000001    0.00000000    0.00000000
     atom   22 type  1   force =     0.00000007   -0.00000004    0.00000000
     atom   23 type  3   force =    -0.00000000    0.00000000   -0.00000000
     atom   24 type  1   force =     0.00000001    0.00000003   -0.00000000
     atom   25 type  3   force =    -0.00000004    0.00000005   -0.00000000
     atom   26 type  1   force =     0.00000003    0.00000002   -0.00000000
     atom   27 type  3   force =    -0.00000012    0.00000006   -0.00000000
     atom   28 type  1   force =     0.00000003   -0.00000000   -0.00000000
     atom   29 type  3   force =    -0.00000001   -0.00000014   -0.00000000
     atom   30 type  1   force =    -0.00000000   -0.00000001   -0.00000000
     atom   31 type  3   force =     0.00000002   -0.00000006   -0.00000000
     atom   32 type  1   force =    -0.00000000   -0.00000000   -0.00000000
     atom   33 type  3   force =    -0.00000001    0.00000000    0.00000000
     atom   34 type  1   force =    -0.00000001    0.00000000   -0.00000000
     atom   35 type  3   force =    -0.00000000   -0.00000001    0.00000000
     atom   36 type  1   force =    -0.00000000    0.00000001    0.00000000
     atom   37 type  3   force =     0.00000004    0.00000005   -0.00000000
     atom   38 type  1   force =    -0.00000003   -0.00000001   -0.00000000
     atom   39 type  3   force =    -0.00000000   -0.00000005   -0.00000000
     atom   40 type  1   force =    -0.00000002   -0.00000002   -0.00000000
     atom   41 type  3   force =    -0.00000001   -0.00000001   -0.00000000
     atom   42 type  1   force =     0.00000001   -0.00000000    0.00000000
     atom   43 type  3   force =    -0.00000004    0.00000002   -0.00000000
     atom   44 type  1   force =     0.00000001    0.00000001   -0.00000000
     atom   45 type  3   force =     0.00000006    0.00000001   -0.00000000
     atom   46 type  1   force =     0.00000001    0.00000000   -0.00000000
     atom   47 type  3   force =     0.00000000    0.00000000   -0.00000000
     atom   48 type  1   force =    -0.00000001    0.00000003   -0.00000000
     atom   49 type  3   force =    -0.00000010    0.00000015    0.00000000
     atom   50 type  1   force =     0.00000003   -0.00000001   -0.00000000
     atom   51 type  3   force =     0.00000012    0.00000006   -0.00000000
     atom   52 type  1   force =     0.00000000    0.00000000   -0.00000000
     atom   53 type  3   force =     0.00000001   -0.00000001   -0.00000000
     atom   54 type  1   force =     0.00000001    0.00000003   -0.00000000
     atom   55 type  3   force =     0.00000000    0.00000001   -0.00000000
     atom   56 type  1   force =     0.00000002   -0.00000003   -0.00000000
     atom   57 type  3   force =     0.00000011    0.00000008   -0.00000000
     atom   58 type  1   force =    -0.00000007   -0.00000004    0.00000000
     atom   59 type  3   force =     0.00000008   -0.00000016    0.00000000
     atom   60 type  1   force =    -0.00000012    0.00000014   -0.00000000
     atom   61 type  3   force =     0.00000029    0.00000017   -0.00000000
     atom   62 type  1   force =    -0.00000003    0.00000002   -0.00000000
     atom   63 type  3   force =    -0.00000004    0.00000002    0.00000000
     atom   64 type  1   force =     0.00000002   -0.00000002   -0.00000000
     atom   65 type  3   force =     0.00000001   -0.00000014   -0.00000000
     atom   66 type  1   force =    -0.00000001    0.00000003   -0.00000000
     atom   67 type  3   force =     0.00000004    0.00000002   -0.00000000
     atom   68 type  1   force =     0.00000000   -0.00000003   -0.00000000
     atom   69 type  3   force =    -0.00000011    0.00000008   -0.00000000
     atom   70 type  1   force =     0.00000006   -0.00000017   -0.00000000
     atom   71 type  3   force =    -0.00000000   -0.00000004    0.00000000
     atom   72 type  2   force =    -0.00000000   -0.00000000   -0.00000000

     Total force =     0.003003     Total SCF correction =     0.000001

     Computing stress (Cartesian axis) and pressure

     negative rho (up, down):  9.775E-04 9.775E-04
          total   stress  (Ry/bohr**3)                   (kbar)     P=   -4.77
  -0.00004110   0.00000000   0.00000000         -6.05      0.00      0.00
   0.00000000  -0.00004110  -0.00000000          0.00     -6.05     -0.00
   0.00000000  -0.00000000  -0.00001513          0.00     -0.00     -2.23

     kinetic stress (kbar)   2678.20     -0.00      0.00
                               -0.00   2678.20     -0.00
                                0.00     -0.00   3008.72

     local   stress (kbar) -44426.74     -0.00     -0.00
                               -0.00 -44426.74     -0.00
                               -0.00     -0.00  43055.67

     nonloc. stress (kbar)    919.12     -0.00      0.00
                               -0.00    919.12     -0.00
                                0.00     -0.00    857.19

     hartree stress (kbar)  20633.14      0.00     -0.00
                                0.00  20633.14     -0.00
                               -0.00     -0.00 -20070.65

     exc-cor stress (kbar)   -368.44      0.00      0.00
                                0.00   -368.44     -0.00
                                0.00     -0.00   -394.41

     corecor stress (kbar)   -287.18     -0.00      0.00
                               -0.00   -287.18      0.00
                                0.00      0.00   -278.17

     ewald   stress (kbar)  20845.85      0.00      0.00
                                0.00  20845.85      0.00
                                0.00      0.00 -26180.57

     hubbard stress (kbar)      0.00      0.00      0.00
                                0.00      0.00      0.00
                                0.00      0.00      0.00

     london  stress (kbar)      0.00      0.00      0.00
                                0.00      0.00      0.00
                                0.00      0.00      0.00

     XDM     stress (kbar)      0.00      0.00      0.00
                                0.00      0.00      0.00
                                0.00      0.00      0.00

     dft-nl  stress (kbar)      0.00      0.00      0.00
                                0.00      0.00      0.00
                                0.00      0.00      0.00

     TS-vdW  stress (kbar)      0.00      0.00      0.00
                                0.00      0.00      0.00
                                0.00      0.00      0.00

     bfgs converged in   8 scf cycles and   7 bfgs steps
     (criteria: energy <  1.0E-04 Ry, force <  1.0E-03 Ry/Bohr)

     End of BFGS Geometry Optimization

     Final energy   =   -1152.8211409794 Ry
Begin final coordinates

ATOMIC_POSITIONS (angstrom)
N        1.190893717   0.761182325   9.999957188
B       -1.269533131   3.609668885  10.000015307
N        0.000000000   2.823870750   9.999957188
B       -2.509145502   5.789688387  10.000021783
N       -1.246851636   5.046347154   9.999985285
B       -3.764796603   7.967609603  10.000020862
N       -2.507814928   7.237071899   9.999984260
B       -5.023106153  10.143995962  10.000021783
N       -3.768969976   9.421456518   9.999984260
B       -6.291252237  12.307541518  10.000015307
N       -5.035711611  11.608845135   9.999985285
B        2.506181429   1.467731200  10.000015307
N        3.739040560   0.729749315   9.999985285
B        1.269533131   3.609668885  10.000015307
N        2.509168726   2.897414373   9.999983871
B        0.000000000   5.790024389  10.000020780
N        1.246851636   5.046347154   9.999985285
B       -1.255050108   7.966243281  10.000020331
N        0.000000000   7.234047400   9.999983859
B       -2.511106625  10.141796985  10.000020331
N       -1.256396895   9.415834849   9.999983818
B       -3.768242415  12.316811708  10.000020780
N       -2.517681804  11.594800203   9.999983859
B        5.013939885   1.451257253  10.000021783
N        6.266745488   0.726413187   9.999984260
B        3.777131222   3.629472861  10.000021761
N        5.016953774   2.897281150   9.999984249
B        2.509145502   5.789688387  10.000021783
N        3.762945876   5.069286543   9.999984249
B        1.255050108   7.966243281  10.000020331
N        2.507814928   7.237071899   9.999984260
B        0.000000000  10.141215935  10.000019987
N        1.256396896   9.415834849   9.999983818
B       -1.256056516  12.315607539  10.000020331
N        0.000000000  11.591978107   9.999983818
B        7.527900536   1.449722397  10.000020862
N        8.789055584   0.726413187   9.999984260
B        6.276356555   3.623617741  10.000020285
N        7.527900536   2.897363976   9.999984101
B        5.021673206   5.796793049  10.000020285
N        6.272984950   5.070454683   9.999983878
B        3.764796604   7.967609603  10.000020862
N        5.018490986   7.243788813   9.999984101
B        2.511106625  10.141796985  10.000020331
N        3.768969976   9.421456518   9.999984260
B        1.256056517  12.315607539  10.000020331
N        2.517681805  11.594800203   9.999983859
B       10.041861186   1.451257253  10.000021783
N       11.316760512   0.729749315   9.999985285
B        8.779444517   3.623617741  10.000020285
N       10.038847298   2.897281150   9.999984249
B        7.527900536   5.794980534  10.000020406
N        8.782816122   5.070454683   9.999983878
B        6.273217187   7.964530812  10.000020285
N        7.527900536   7.244032237   9.999983878
B        5.023106153  10.143995962  10.000021783
N        6.273892638   9.418373909   9.999984249
B        3.768242416  12.316811708  10.000020780
N        5.035711612  11.608845135   9.999985285
B       12.549619642   1.467731200  10.000015307
N       13.864907355   0.761182325   9.999957188
B       11.278669849   3.629472861  10.000021761
N       12.546632346   2.897414373   9.999983871
B       10.034127866   5.796793049  10.000020285
N       11.292855196   5.069286543   9.999984249
B        8.782583885   7.964530812  10.000020285
N       10.037310086   7.243788813   9.999984101
B        7.527900536  10.125995880  10.000021761
N        8.781908434   9.418373909   9.999984249
B        6.291252237  12.307541518  10.000015307
N        7.527900536  11.590112857   9.999983871
C        0.000000000   1.448745133   9.999950244
End final coordinates

     Writing output data file aiida.save

     General routines

     Parallel routines

     PAW routines

   This run was terminated on:  21: 2:59  29Feb2020

   JOB DONE.